 vasp.5.4.4.18Apr17-6-g9f103f2a35 (build Jun 11 2021 14:50:19) complex

 executed on             LinuxIFC date 2024.05.27  20:06:01

 INCAR:
 POTCAR:    PAW_PBE S 06Sep2000
 POTCAR:     PAW_PBE Cu_pv 06Sep2000
 POTCAR:     PAW_PBE Fe_pv 02Aug2007

   TITEL  = PAW_PBE S 06Sep2000
   POMASS =   32.066; ZVAL   =    6.000    mass and valenz
   ENMAX  =  258.689; ENMIN  =  194.016 eV

   TITEL  = PAW_PBE Cu_pv 06Sep2000
   POMASS =   63.546; ZVAL   =   17.000    mass and valenz
   ENMAX  =  368.648; ENMIN  =  276.486 eV

   TITEL  = PAW_PBE Fe_pv 02Aug2007
   POMASS =   55.847; ZVAL   =   14.000    mass and valenz
   ENMAX  =  293.238; ENMIN  =  219.928 eV

  PAW_PBE S 06Sep2000                   :
   PAW_PBE Cu_pv 06Sep2000              :
   PAW_PBE Fe_pv 02Aug2007              :

 POSCAR: sm_isp_SD0310437-standardized_unitcell
  positions in direct lattice
  velocities in cartesian coordinates
 exchange correlation table for  LEXCH =       14
   RHO(1)=    0.500       N(1)  =     2000
   RHO(2)=  100.500       N(2)  =     4000

 ion  position               nearest neighbor table
   1  0.252  0.250  0.125-  10 2.26  11 2.26  13 2.28  16 2.28
   2  0.748  0.750  0.125-  10 2.26  11 2.26  13 2.28  16 2.28
   3  0.250  0.748  0.875-  11 2.26  12 2.26  13 2.28  14 2.28
   4  0.750  0.252  0.875-  11 2.26  12 2.26  13 2.28  14 2.28
   5  0.248  0.250  0.625-   9 2.26  12 2.26  14 2.28  15 2.28
   6  0.752  0.750  0.625-   9 2.26  12 2.26  14 2.28  15 2.28
   7  0.750  0.248  0.375-   9 2.26  10 2.26  15 2.28  16 2.28
   8  0.250  0.752  0.375-   9 2.26  10 2.26  15 2.28  16 2.28
   9  0.000  0.000  0.500-   5 2.26   7 2.26   6 2.26   8 2.26
  10  0.500  0.000  0.250-   7 2.26   1 2.26   2 2.26   8 2.26
  11  0.500  0.500  0.000-   1 2.26   4 2.26   3 2.26   2 2.26
  12  0.000  0.500  0.750-   5 2.26   4 2.26   3 2.26   6 2.26
  13  0.000  0.000  0.000-   2 2.28   3 2.28   1 2.28   4 2.28
  14  0.500  0.000  0.750-   3 2.28   6 2.28   4 2.28   5 2.28
  15  0.500  0.500  0.500-   6 2.28   8 2.28   7 2.28   5 2.28
  16  0.000  0.500  0.250-   2 2.28   8 2.28   1 2.28   7 2.28

  LATTYP: Found a simple tetragonal cell.
 ALAT       =     5.2587856555
 C/A-ratio  =     1.9792277963

  Lattice vectors:

 A1 = (   5.2587856555,   0.0000000000,   0.0000000000)
 A2 = (   0.0000000000,   5.2587856555,   0.0000000000)
 A3 = (   0.0000000000,   0.0000000000,  10.4083347443)

Analysis of symmetry for initial positions (statically):
 Subroutine PRICEL returns following result:

  LATTYP: Found a body centered tetragonal cell.
 ALAT       =     5.2587856555
 C/A-ratio  =     1.9792277963

[...]

   2 primitive cells build up your supercell.

 Routine SETGRP: Setting up the symmetry group for a
 simple tetragonal supercell.

 Subroutine GETGRP returns: Found  8 space group operations
 (whereof  4 operations were pure point group operations)
 out of a pool of 16 trial point group operations.

The static configuration has the point symmetry S_4 .
 The point group associated with its full space group is D_2d.

Analysis of symmetry for dynamics (positions and initial velocities):
 Subroutine PRICEL returns following result:

[...]

The dynamic configuration has the point symmetry S_4 .
 The point group associated with its full space group is D_2d.

Analysis of structural, dynamic, and magnetic symmetry:
 Subroutine PRICEL returns following result:

  LATTYP: Found a body centered tetragonal cell.
 ALAT       =     5.2587856555
 C/A-ratio  =     1.9792277963

  Lattice vectors:

 A1 = (   2.6293928278,  -2.6293928278,   5.2041673722)
 A2 = (  -2.6293928278,   2.6293928278,   5.2041673722)
 A3 = (  -2.6293928278,  -2.6293928278,  -5.2041673722)

   2 primitive cells build up your supercell.

 Routine SETGRP: Setting up the symmetry group for a
 simple tetragonal supercell.

 Subroutine GETGRP returns: Found  8 space group operations
 (whereof  4 operations were pure point group operations)
 out of a pool of 16 trial point group operations.

The (compounded) configuration has the point symmetry S_4 .
 The point group associated with its full space group is D_2d.

 Subroutine INISYM returns: Found  8 space group operations
 (whereof  4 operations are pure point group operations),
 and found     2 'primitive' translations

 KPOINTS: Automatic mesh

Automatic generation of k-mesh.
Space group operators:
 irot       det(A)        alpha          n_x          n_y          n_z        tau_x        tau_y        tau_z
    1     1.000000     0.000000     1.000000     0.000000     0.000000     0.000000     0.000000     0.000000
    2    -1.000000    90.000000     0.000000     0.000000    -1.000000     0.000000     0.000000     0.000000
    3     1.000000   180.000000     0.000000     0.000000     1.000000     0.000000     0.000000     0.000000
    4    -1.000000    90.000000     0.000000     0.000000     1.000000     0.000000     0.000000     0.000000
    5     1.000000   179.999999     0.000000     1.000000     0.000000     0.000000    -0.500000     0.250000
    6    -1.000000   180.000000     0.707107     0.707107     0.000000     0.000000    -0.500000     0.250000
    7     1.000000   180.000000     1.000000     0.000000     0.000000     0.000000    -0.500000     0.250000
    8    -1.000000   180.000000     0.707107    -0.707107     0.000000     0.000000    -0.500000     0.250000

 Subroutine IBZKPT returns following result:

 Found     33 irreducible k-points:

 Following reciprocal coordinates:
            Coordinates               Weight
  0.000000  0.000000  0.000000      1.000000
  0.250000  0.000000  0.000000      4.000000
  0.500000  0.000000  0.000000      2.000000
  0.250000  0.250000  0.000000      4.000000
  0.500000  0.250000  0.000000      4.000000
  0.500000  0.500000  0.000000      1.000000
  0.000000  0.000000  0.125000      2.000000
  0.250000  0.000000  0.125000      8.000000
  0.500000  0.000000  0.125000      4.000000
  0.250000  0.250000  0.125000      4.000000
  0.500000  0.250000  0.125000      8.000000
 -0.250000  0.250000  0.125000      4.000000
  0.500000  0.500000  0.125000      2.000000
  0.000000  0.000000  0.250000      2.000000
  0.250000  0.000000  0.250000      8.000000
  0.500000  0.000000  0.250000      4.000000
  0.250000  0.250000  0.250000      4.000000
  0.500000  0.250000  0.250000      8.000000
 -0.250000  0.250000  0.250000      4.000000
  0.500000  0.500000  0.250000      2.000000
  0.000000  0.000000  0.375000      2.000000
  0.250000  0.000000  0.375000      8.000000
  0.500000  0.000000  0.375000      4.000000
  0.250000  0.250000  0.375000      4.000000
  0.500000  0.250000  0.375000      8.000000
 -0.250000  0.250000  0.375000      4.000000
  0.500000  0.500000  0.375000      2.000000
  0.000000  0.000000  0.500000      1.000000
  0.250000  0.000000  0.500000      4.000000
  0.500000  0.000000  0.500000      2.000000
  0.250000  0.250000  0.500000      4.000000
  0.500000  0.250000  0.500000      4.000000
  0.500000  0.500000  0.500000      1.000000

 Following cartesian coordinates:
            Coordinates               Weight
  0.000000  0.000000  0.000000      1.000000
  0.047539  0.000000  0.000000      4.000000
  0.095079  0.000000  0.000000      2.000000
  0.047539  0.047539  0.000000      4.000000
  0.095079  0.047539  0.000000      4.000000
  0.095079  0.095079  0.000000      1.000000
  0.000000  0.000000  0.012010      2.000000
  0.047539  0.000000  0.012010      8.000000
  0.095079  0.000000  0.012010      4.000000
  0.047539  0.047539  0.012010      4.000000
  0.095079  0.047539  0.012010      8.000000
 -0.047539  0.047539  0.012010      4.000000
  0.095079  0.095079  0.012010      2.000000
  0.000000  0.000000  0.024019      2.000000
  0.047539  0.000000  0.024019      8.000000
  0.095079  0.000000  0.024019      4.000000
  0.047539  0.047539  0.024019      4.000000
  0.095079  0.047539  0.024019      8.000000
 -0.047539  0.047539  0.024019      4.000000
  0.095079  0.095079  0.024019      2.000000
  0.000000  0.000000  0.036029      2.000000
  0.047539  0.000000  0.036029      8.000000
  0.095079  0.000000  0.036029      4.000000
  0.047539  0.047539  0.036029      4.000000
  0.095079  0.047539  0.036029      8.000000
 -0.047539  0.047539  0.036029      4.000000
  0.095079  0.095079  0.036029      2.000000
  0.000000  0.000000  0.048038      1.000000
  0.047539  0.000000  0.048038      4.000000
  0.095079  0.000000  0.048038      2.000000
  0.047539  0.047539  0.048038      4.000000
  0.095079  0.047539  0.048038      4.000000
  0.095079  0.095079  0.048038      1.000000

 TETIRR: Found    312 inequivalent tetrahedra from      768

 SYSTEM =  CuFeS2
 POSCAR =  sm_isp_SD0310437-standardized_unitcell

 Startparameter for this run:
   NWRITE =      2    write-flag & timer
   PREC   = accura    normal or accurate (medium, high low for compatibility)
   ISTART =      0    job   : 0-new  1-cont  2-samecut
   ICHARG =      1    charge: 1-file 2-atom 10-const
   ISPIN  =      1    spin polarized calculation?
   LNONCOLLINEAR =      T non collinear calculations
   LSORBIT =      T    spin-orbit coupling
   INIWAV =      1    electr: 0-lowe 1-rand  2-diag
   LASPH  =      T    aspherical Exc in radial PAW
   METAGGA=      F    non-selfconsistent MetaGGA calc.

 Electronic Relaxation 1
   ENCUT  =  700.0 eV  51.45 Ry    7.17 a.u.  11.34 11.34 22.45*2*pi/ulx,y,z
   ENINI  =  700.0     initial cutoff
   ENAUG  =  758.2 eV  augmentation charge cutoff
   NELM   =    200;   NELMIN=  2; NELMDL=  0     # of ELM steps
   EDIFF  = 0.1E-07   stopping-criterion for ELM
   LREAL  =      F    real-space projection
   NLSPLINE    = F    spline interpolate recip. space projectors
   LCOMPAT=      F    compatible to vasp.4.4
   GGA_COMPAT  = T    GGA compatible to vasp.4.4-vasp.4.6
   LMAXPAW     = -100 max onsite density
   LMAXMIX     =    4 max onsite mixed and CHGCAR
   VOSKOWN=      0    Vosko Wilk Nusair interpolation
   ROPT   =    0.00000   0.00000   0.00000
 Ionic relaxation
   EDIFFG = -.1E-04   stopping-criterion for IOM
   NSW    =      0    number of steps for IOM
   NBLOCK =      1;   KBLOCK =      1    inner block; outer block
   IBRION =     -1    ionic relax: 0-MD 1-quasi-New 2-CG
   NFREE  =      0    steps in history (QN), initial steepest desc. (CG)
   ISIF   =      2    stress and relaxation
   IWAVPR =     10    prediction:  0-non 1-charg 2-wave 3-comb
   ISYM   =      2    0-nonsym 1-usesym 2-fastsym
   LCORR  =      T    Harris-Foulkes like correction to forces

   POTIM  = 0.2000    time-step for ionic-motion
   TEIN   =    0.0    initial temperature
   TEBEG  =    0.0;   TEEND  =   0.0 temperature during run
   SMASS  =  -3.00    Nose mass-parameter (am)
   estimated Nose-frequenzy (Omega)   =  0.10E-29 period in steps =****** mass=  -0.632E-27a.u.
   SCALEE = 1.0000    scale energy and forces
   NPACO  =    256;   APACO  = 16.0  distance and # of slots for P.C.
   PSTRESS=    0.0 pullay stress

  Mass of Ions in am
   POMASS =  32.07 63.55 55.85
  Ionic Valenz
   ZVAL   =   6.00 17.00 14.00
  Atomic Wigner-Seitz radii
  virtual crystal weights
   VCA    =   1.00  1.00  1.00
   NELECT =     172.0000    total number of electrons
[...]
         Band energy:***********;  BLOECHL correction:  0.000000

 eigenvalue-minimisations  :  7338
 total energy-change (2. order) : 0.7159542E-08  (-0.2565937E-10)
 number of electron     172.0000107 magnetization      -0.0000000     -0.0000000      0.0000000
 augmentation part       70.5561812 magnetization      -0.0000000     -0.0000000      0.0000000

 Free energy of the ion-electron system (eV)
  alpha Z        PSCENC =       588.68295422
  Ewald energy   TEWEN  =    -15613.51431849
  -Hartree energ DENC   =    -10740.94655300
  -exchange      EXHF   =         0.00000000
  -V(xc)+E(xc)   XCENC  =       821.60609354
  PAW double counting   =     28070.97593780   -28994.45219678
  entropy T*S    EENTRO =         0.00000000
  eigenvalues    EBANDS =     -2719.63572881
  atomic energy  EATOM  =     28505.01627691
  Solvation  Ediel_sol  =         0.00000000
  free energy    TOTEN  =       -82.26753461 eV

  energy without entropy =      -82.26753461  energy(sigma->0) =      -82.26753461

 average (electrostatic) potential at core
  the test charge radii are     0.9698  0.8297  0.9500
  (the norm of the test charge is              1.0000)
       1 -86.6288       2 -86.6288       3 -86.6288       4 -86.6288       5 -86.6288
       6 -86.6288       7 -86.6288       8 -86.6288       9 -80.7116      10 -80.7116
      11 -80.7116      12 -80.7116      13 -80.2185      14 -80.2185      15 -80.2185
      16 -80.2185

 E-fermi :   4.9984     XC(G=0): -10.4631     alpha+bet :-10.5400

 k-point     1 :       0.0000    0.0000    0.0000
  band No.  band energies     occupation
      1     -65.9988      1.00000
      2     -65.9988      1.00000
      3     -65.9988      1.00000
      4     -65.9988      1.00000
      5     -65.9872      1.00000
      6     -65.9872      1.00000
      7     -65.9872      1.00000
      8     -65.9872      1.00000
      9     -63.4580      1.00000
     10     -63.4580      1.00000
     11     -63.4580      1.00000
     12     -63.4580      1.00000
     13     -63.4441      1.00000
     14     -63.4441      1.00000
     15     -63.4441      1.00000
     16     -63.4441      1.00000
     17     -63.4395      1.00000
     18     -63.4395      1.00000
     19     -63.4395      1.00000
     20     -63.4395      1.00000
     21     -63.4310      1.00000
     22     -63.4310      1.00000
     23     -63.4310      1.00000
     24     -63.4310      1.00000
     25     -52.4528      1.00000
     26     -52.4528      1.00000
     27     -52.4528      1.00000
     28     -52.4528      1.00000
     29     -52.0109      1.00000
     30     -52.0109      1.00000
     31     -52.0109      1.00000
     32     -52.0109      1.00000
     33     -51.3308      1.00000
     34     -51.3308      1.00000
     35     -51.3308      1.00000
     36     -51.3308      1.00000
     37     -48.0890      1.00000
     38     -48.0890      1.00000
     39     -48.0890      1.00000
     40     -48.0890      1.00000
     41     -47.6192      1.00000
     42     -47.6192      1.00000
     43     -47.6192      1.00000
     44     -47.6192      1.00000
     45     -47.2184      1.00000
     46     -47.2184      1.00000
     47     -47.2184      1.00000
     48     -47.2184      1.00000
     49      -9.1144      1.00000
     50      -9.1144      1.00000
     51      -8.5032      1.00000
     52      -8.5032      1.00000
     53      -8.4815      1.00000
     54      -8.4815      1.00000
     55      -7.7746      1.00000
     56      -7.7746      1.00000
     57      -7.7746      1.00000
     58      -7.7746      1.00000
     59      -7.7721      1.00000
     60      -7.7721      1.00000
[...]
    192       6.7370      0.00000
    193       7.6823      0.00000
    194       7.6823      0.00000
    195       8.7764      0.00000
    196       8.7764      0.00000
    197       8.7928      0.00000
    198       8.7928      0.00000
    199       8.8171      0.00000
    200       8.8171      0.00000
    201       9.3040      0.00000
    202       9.3040      0.00000
    203       9.5603      0.00000
    204       9.5603      0.00000
    205      10.0911      0.00000
    206      10.0912      0.00000

[...]

 k-point    33 :       0.5000    0.5000    0.5000
  band No.  band energies     occupation
      1     -65.9988      1.00000
      2     -65.9988      1.00000
      3     -65.9988      1.00000
      4     -65.9988      1.00000
      5     -65.9873      1.00000
      6     -65.9872      1.00000
      7     -65.9872      1.00000
      8     -65.9872      1.00000
      9     -63.4580      1.00000
     10     -63.4580      1.00000
     11     -63.4580      1.00000
     12     -63.4579      1.00000
     13     -63.4441      1.00000
     14     -63.4441      1.00000
     15     -63.4441      1.00000
     16     -63.4440      1.00000
     17     -63.4395      1.00000
     18     -63.4395      1.00000
     19     -63.4395      1.00000
     20     -63.4395      1.00000
     21     -63.4310      1.00000
     22     -63.4310      1.00000
     23     -63.4310      1.00000
     24     -63.4310      1.00000
     25     -52.4528      1.00000
     26     -52.4528      1.00000
     27     -52.4528      1.00000
     28     -52.4527      1.00000
     29     -52.0109      1.00000
     30     -52.0109      1.00000
     31     -52.0109      1.00000
     32     -52.0108      1.00000
     33     -51.3308      1.00000
     34     -51.3308      1.00000
     35     -51.3308      1.00000
     36     -51.3308      1.00000
     37     -48.0890      1.00000
     38     -48.0890      1.00000
     39     -48.0890      1.00000
     40     -48.0889      1.00000
     41     -47.6193      1.00000
     42     -47.6192      1.00000
     43     -47.6192      1.00000
     44     -47.6192      1.00000
     45     -47.2184      1.00000
     46     -47.2184      1.00000
     47     -47.2184      1.00000
     48     -47.2184      1.00000
     49      -8.1344      1.00000
     50      -8.1327      1.00000
     51      -8.1327      1.00000
     52      -8.1308      1.00000
     53      -8.1296      1.00000
     54      -8.1287      1.00000
     55      -8.1287      1.00000
     56      -8.1270      1.00000
     57      -8.1234      1.00000
     58      -8.1210      1.00000
     59      -8.1210      1.00000
     60      -8.1194      1.00000
[...]
    192       6.4768      0.00000
    193       9.7034      0.00000
    194       9.7034      0.00000
    195       9.7051      0.00000
    196       9.7057      0.00000
    197       9.8047      0.00000
    198       9.8080      0.00000
    199       9.8080      0.00000
    200       9.8081      0.00000
    201       9.8341      0.00000
    202       9.8366      0.00000
    203       9.8366      0.00000
    204       9.8371      0.00000
    205      10.2368      0.00000
    206      10.2394      0.00000

 soft charge-density along one line, spin component           1
         0         1         2         3         4         5         6         7         8         9
 total charge-density along one line

[...]

 soft charge-density along one line, spin component           4
         0         1         2         3         4         5         6         7         8         9
 total charge-density along one line

------------------------ aborting loop because EDIFF is reached ----------------------------------------

[...]

  FORCE on cell =-STRESS in cart. coord.  units (eV):
  Direction    XX          YY          ZZ          XY          YZ          ZX
  Alpha Z   588.68295   588.68295   588.68295
  Ewald   -5196.21819 -5196.21819 -5221.11808    -0.00000    -0.00000    -0.00000
  Hartree  3580.20337  3580.20337  3580.53981    -0.00000    -0.00000    -0.00000
  E(xc)   -1050.65738 -1050.65738 -1050.65400    -0.00000    -0.00000    -0.00000
  Local   -1266.07707 -1266.07707 -1238.34299    -0.00000    -0.00000    -0.00000
  n-local   120.84778   122.42134   121.67189    -0.14763    -0.03297    -0.02305
  augment  1181.47006  1181.47006  1179.19251    -0.00000    -0.00000    -0.00000
  Kinetic  2035.66932  2046.27926  2040.05674    -0.47849     0.08807    -0.03808
  Fock        0.00000     0.00000     0.00000     0.00000     0.00000     0.00000
  Total       0.01258     0.01258     0.02883     0.00000     0.00000    -0.00000
  in kB       0.07004     0.07004     0.16048     0.00000     0.00000    -0.00000

 VOLUME and BASIS-vectors are now :
  energy-cutoff  :      700.00
  volume of cell :      287.84
      direct lattice vectors                 reciprocal lattice vectors
     5.258785656  0.000000000  0.000000000     0.190157969  0.000000000  0.000000000
     0.000000000  5.258785656  0.000000000     0.000000000  0.190157969  0.000000000
     0.000000000  0.000000000 10.408334744     0.000000000  0.000000000  0.096076848

  length of vectors
     5.258785656  5.258785656 10.408334744     0.190157969  0.190157969  0.096076848

 FORCES acting on ions
    electron-ion (+dipol)            ewald-force                    non-local-force                 convergence-correction
   0.423E+02 -.202E-12 -.869E-13   -.431E+02 -.142E-13 -.568E-13   0.823E+00 -.867E-18 -.434E-18   -.888E-08 0.748E-13 -.249E-12
   -.423E+02 0.466E-12 0.852E-12   0.431E+02 -.284E-13 0.284E-13   -.823E+00 -.434E-18 0.000E+00   0.888E-08 0.550E-13 -.234E-12
   -.366E-13 -.423E+02 0.795E-12   0.151E-13 0.431E+02 0.128E-12   -.244E-18 -.823E+00 0.434E-18   0.578E-13 0.888E-08 -.121E-13
   0.119E-11 0.423E+02 0.347E-12   -.142E-13 -.431E+02 0.284E-13   0.217E-18 0.823E+00 0.434E-18   0.473E-13 -.888E-08 0.914E-14
   -.423E+02 -.397E-12 -.798E-13   0.431E+02 0.409E-13 -.142E-13   -.823E+00 -.434E-18 0.000E+00   0.888E-08 0.108E-12 0.251E-12
   0.423E+02 -.159E-12 0.196E-12   -.431E+02 -.311E-13 -.142E-13   0.823E+00 -.867E-18 -.434E-18   -.888E-08 0.216E-13 0.237E-12
   0.781E-12 -.423E+02 0.475E-12   0.142E-13 0.431E+02 -.568E-13   -.244E-18 -.823E+00 0.434E-18   0.603E-13 0.888E-08 0.129E-13
   -.231E-12 0.423E+02 0.334E-12   -.284E-13 -.431E+02 0.000E+00   0.217E-18 0.823E+00 0.434E-18   0.442E-13 -.888E-08 0.298E-13
   0.143E-05 -.318E-05 -.289E-11   0.104E-04 -.234E-04 0.000E+00   0.000E+00 -.379E-18 0.651E-18   0.857E-12 0.221E-11 0.539E-12
   -.143E-05 -.318E-05 -.591E-11   -.104E-04 -.234E-04 0.284E-12   0.000E+00 -.542E-19 -.867E-18   -.595E-12 0.228E-11 -.530E-12
   -.143E-05 0.318E-05 -.236E-11   -.104E-04 0.234E-04 -.114E-12   0.000E+00 0.542E-19 0.651E-18   -.637E-12 -.219E-11 0.147E-13
   0.143E-05 0.318E-05 0.372E-11   0.104E-04 0.234E-04 0.737E-13   0.000E+00 -.163E-18 -.867E-18   0.946E-12 -.205E-11 0.695E-12
   -.105E-05 0.266E-05 0.218E-11   -.783E-05 0.195E-04 -.114E-12   0.434E-18 0.000E+00 0.000E+00   0.151E-11 0.374E-12 -.223E-13
   0.105E-05 0.266E-05 -.367E-10   0.783E-05 0.195E-04 -.157E-12   0.000E+00 -.217E-18 0.108E-18   -.138E-11 0.289E-12 0.601E-12
   0.105E-05 -.266E-05 -.883E-11   0.783E-05 -.195E-04 0.000E+00   0.000E+00 0.000E+00 0.000E+00   -.134E-11 -.266E-12 0.376E-12
   -.105E-05 -.266E-05 -.129E-11   -.783E-05 -.195E-04 0.000E+00   0.651E-18 -.217E-18 0.108E-18   0.150E-11 -.322E-12 -.460E-12
   0.237E-10 0.137E-10 -.492E-10   0.814E-13 0.350E-13 0.164E-13   0.106E-17 0.221E-15 0.651E-18   0.129E-11 0.841E-12 0.126E-11

 POSITION                                       TOTAL-FORCE (eV/Angst)
      1.32727      1.31470      1.30104         0.000783      0.000000     -0.000000
      3.93152      3.94409      1.30104        -0.000783      0.000000     -0.000000
      1.31470      3.93152      9.10729         0.000000     -0.000783      0.000000
      3.94409      1.32727      9.10729        -0.000000      0.000783      0.000000
      1.30212      1.31470      6.50521        -0.000783      0.000000     -0.000000
      3.95666      3.94409      6.50521         0.000783      0.000000     -0.000000
      3.94409      1.30212      3.90313         0.000000     -0.000783      0.000000
      1.31470      3.95666      3.90313         0.000000      0.000783      0.000000
      0.00000      0.00000      5.20417        -0.000000      0.000000     -0.000000
      2.62939      0.00000      2.60208         0.000000      0.000000     -0.000000
      2.62939      2.62939      0.00000         0.000000      0.000000     -0.000000
      0.00000      2.62939      7.80625         0.000000      0.000000     -0.000000
      0.00000      0.00000      0.00000         0.000000      0.000000     -0.000000
      2.62939      0.00000      7.80625        -0.000000      0.000000     -0.000000
      2.62939      2.62939      5.20417         0.000000      0.000000     -0.000000
      0.00000      2.62939      2.60208        -0.000000      0.000000      0.000000
    total drift:                                0.000000      0.000000     -0.000000

  FREE ENERGIE OF THE ION-ELECTRON SYSTEM (eV)
  free  energy   TOTEN  =       -82.26753461 eV

  energy  without entropy=      -82.26753461  energy(sigma->0) =      -82.26753461

 writing wavefunctions

 Spin-Orbit-Coupling matrix elements

 Ion:    1  E_soc:     -0.0017350
 l=   1
     0.0000000    -0.0002477    -0.0003675
    -0.0002477     0.0000000    -0.0002524
    -0.0003675    -0.0002524     0.0000000
 l=   2
     0.0000000     0.0000000     0.0000000     0.0000000     0.0000000
     0.0000000     0.0000000     0.0000000     0.0000000     0.0000000
     0.0000000     0.0000000     0.0000000     0.0000000     0.0000000
     0.0000000     0.0000000     0.0000000     0.0000000     0.0000000
     0.0000000     0.0000000     0.0000000     0.0000000     0.0000000
 l=   3
     0.0000000     0.0000000     0.0000000     0.0000000     0.0000000     0.0000000     0.0000000
     0.0000000     0.0000000     0.0000000     0.0000000     0.0000000     0.0000000     0.0000000
     0.0000000     0.0000000     0.0000000     0.0000000     0.0000000     0.0000000     0.0000000
     0.0000000     0.0000000     0.0000000     0.0000000     0.0000000     0.0000000     0.0000000
     0.0000000     0.0000000     0.0000000     0.0000000     0.0000000     0.0000000     0.0000000
     0.0000000     0.0000000     0.0000000     0.0000000     0.0000000     0.0000000     0.0000000
     0.0000000     0.0000000     0.0000000     0.0000000     0.0000000     0.0000000     0.0000000

[...]

 Ion:   16  E_soc:     -0.0363754
 l=   1
     0.0000000    -0.0042778    -0.0043113
    -0.0042778     0.0000000    -0.0042778
    -0.0043113    -0.0042778     0.0000000
 l=   2
     0.0000000    -0.0003502     0.0000000    -0.0003502    -0.0008515
    -0.0003502     0.0000000    -0.0013063    -0.0002985    -0.0004288
     0.0000000    -0.0013063     0.0000000    -0.0013063     0.0000000
    -0.0003502    -0.0002985    -0.0013063     0.0000000    -0.0004288
    -0.0008515    -0.0004288     0.0000000    -0.0004288     0.0000000
 l=   3
     0.0000000     0.0000000     0.0000000     0.0000000     0.0000000     0.0000000     0.0000000
     0.0000000     0.0000000     0.0000000     0.0000000     0.0000000     0.0000000     0.0000000
     0.0000000     0.0000000     0.0000000     0.0000000     0.0000000     0.0000000     0.0000000
     0.0000000     0.0000000     0.0000000     0.0000000     0.0000000     0.0000000     0.0000000
     0.0000000     0.0000000     0.0000000     0.0000000     0.0000000     0.0000000     0.0000000
     0.0000000     0.0000000     0.0000000     0.0000000     0.0000000     0.0000000     0.0000000
     0.0000000     0.0000000     0.0000000     0.0000000     0.0000000     0.0000000     0.0000000

 total charge

[...]

 magnetization (x)

[...]

 magnetization (y)

[...]

 magnetization (z)

# of ion       s       p       d       tot
    1        0.000  -0.000   0.000  -0.000
    2        0.000  -0.002   0.000  -0.002
    3       -0.000   0.002   0.000   0.002
    4       -0.000   0.002   0.000   0.001
    5        0.000  -0.002   0.000  -0.002
    6        0.000  -0.000   0.000  -0.000
    7       -0.000   0.002   0.000   0.002
    8       -0.000   0.002   0.000   0.001
    9        0.000   0.000  -0.001   0.000
   10       -0.000  -0.000   0.001  -0.000
   11        0.000   0.000  -0.001   0.000
   12       -0.000  -0.000   0.001  -0.000
   13        0.020   0.054   3.666   3.740
   14       -0.020  -0.054  -3.667  -3.741
   15        0.020   0.054   3.666   3.740
   16       -0.020  -0.054  -3.667  -3.741
tot          0.000   0.001  -0.002  -0.000

 BZINTS: Fermi energy:  4.998439;172.000000 electrons
         Band energy:***********;  BLOECHL correction:  0.000000
 BZINTS: Fermi energy:  4.998439;172.000000 electrons
         Band energy:***********;  BLOECHL correction:  0.000000
 BZINTS: Fermi energy:  4.998439;172.000000 electrons
         Band energy:***********;  BLOECHL correction:  0.000000
 BZINTS: Fermi energy:  4.998439;172.000000 electrons
         Band energy:***********;  BLOECHL correction:  0.000000