 vasp.5.4.4.18Apr17-6-g9f103f2a35 (build Oct 20 2023 21:10:59) complex

 executed on                 FRAM date 2024.03.19  14:58:51

 INCAR:
 POTCAR:    PAW_PBE S 06Sep2000
 POTCAR:     PAW_PBE Cu_pv 06Sep2000
 POTCAR:     PAW_PBE Fe_pv 02Aug2007

   TITEL  = PAW_PBE S 06Sep2000
   POMASS =   32.066; ZVAL   =    6.000    mass and valenz
   ENMAX  =  258.689; ENMIN  =  194.016 eV

   TITEL  = PAW_PBE Cu_pv 06Sep2000
   POMASS =   63.546; ZVAL   =   17.000    mass and valenz
   ENMAX  =  368.648; ENMIN  =  276.486 eV

   TITEL  = PAW_PBE Fe_pv 02Aug2007
   POMASS =   55.847; ZVAL   =   14.000    mass and valenz
   ENMAX  =  293.238; ENMIN  =  219.928 eV

  PAW_PBE S 06Sep2000                   :
   PAW_PBE Cu_pv 06Sep2000              :
   PAW_PBE Fe_pv 02Aug2007              :

 POSCAR: generated by phonopy
  positions in direct lattice
  velocities in cartesian coordinates
 exchange correlation table for  LEXCH =       14
   RHO(1)=    0.500       N(1)  =     2000
   RHO(2)=  100.500       N(2)  =     4000

 ion  position               nearest neighbor table
   1  0.126  0.125  0.125-  37 2.26  41 2.26  49 2.28  61 2.28
   2  0.626  0.125  0.125-  38 2.26  42 2.26  50 2.28  62 2.28
   3  0.126  0.625  0.125-  39 2.26  43 2.26  51 2.28  63 2.28
   4  0.626  0.625  0.125-  40 2.26  44 2.26  52 2.28  64 2.28
   5  0.374  0.375  0.125-  39 2.26  41 2.26  52 2.28  62 2.28
   6  0.874  0.375  0.125-  40 2.26  42 2.26  51 2.28  61 2.28
   7  0.374  0.875  0.125-  37 2.26  43 2.26  50 2.28  64 2.28
   8  0.874  0.875  0.125-  38 2.26  44 2.26  49 2.28  63 2.28
   9  0.125  0.374  0.875-  41 2.26  45 2.26  51 2.28  55 2.28
  10  0.625  0.374  0.875-  42 2.26  46 2.26  52 2.28  56 2.28
  11  0.125  0.874  0.875-  43 2.26  47 2.26  49 2.28  53 2.28
  12  0.625  0.874  0.875-  44 2.26  48 2.26  50 2.28  54 2.28
  13  0.375  0.126  0.875-  41 2.26  46 2.26  50 2.28  53 2.28
  14  0.875  0.126  0.875-  42 2.26  45 2.26  49 2.28  54 2.28
  15  0.375  0.626  0.875-  43 2.26  48 2.26  52 2.28  55 2.28
  16  0.875  0.626  0.875-  44 2.26  47 2.26  51 2.28  56 2.28
  17  0.124  0.125  0.625-  33 2.26  45 2.26  53 2.28  57 2.28
  18  0.624  0.125  0.625-  34 2.26  46 2.26  54 2.28  58 2.28
  19  0.124  0.625  0.625-  35 2.26  47 2.26  55 2.28  59 2.28
  20  0.624  0.625  0.625-  36 2.26  48 2.26  56 2.28  60 2.28
  21  0.376  0.375  0.625-  36 2.26  46 2.26  55 2.28  57 2.28
  22  0.876  0.375  0.625-  35 2.26  45 2.26  56 2.28  58 2.28
  23  0.376  0.875  0.625-  34 2.26  48 2.26  53 2.28  59 2.28
  24  0.876  0.875  0.625-  33 2.26  47 2.26  54 2.28  60 2.28
  25  0.375  0.124  0.375-  34 2.26  37 2.26  57 2.28  62 2.28
  26  0.875  0.124  0.375-  33 2.26  38 2.26  58 2.28  61 2.28
  27  0.375  0.624  0.375-  36 2.26  39 2.26  59 2.28  64 2.28
  28  0.875  0.624  0.375-  35 2.26  40 2.26  60 2.28  63 2.28
  29  0.125  0.376  0.375-  35 2.26  39 2.26  57 2.28  61 2.28
  30  0.625  0.376  0.375-  36 2.26  40 2.26  58 2.28  62 2.28
  31  0.125  0.876  0.375-  33 2.26  37 2.26  59 2.28  63 2.28
  32  0.625  0.876  0.375-  34 2.26  38 2.26  60 2.28  64 2.28
  33  0.000  0.000  0.500-  17 2.26  26 2.26  24 2.26  31 2.26
  34  0.500  0.000  0.500-  18 2.26  25 2.26  23 2.26  32 2.26
  35  0.000  0.500  0.500-  19 2.26  28 2.26  29 2.26  22 2.26
  36  0.500  0.500  0.500-  20 2.26  27 2.26  21 2.26  30 2.26
  37  0.250  0.000  0.250-   1 2.26  25 2.26   7 2.26  31 2.26
  38  0.750  0.000  0.250-  26 2.26   2 2.26   8 2.26  32 2.26
  39  0.250  0.500  0.250-   3 2.26  27 2.26   5 2.26  29 2.26
  40  0.750  0.500  0.250-  28 2.26   4 2.26  30 2.26   6 2.26
  41  0.250  0.250  0.000-   1 2.26  13 2.26   9 2.26   5 2.26
  42  0.750  0.250  0.000-  14 2.26   2 2.26  10 2.26   6 2.26
  43  0.250  0.750  0.000-   3 2.26  15 2.26   7 2.26  11 2.26
  44  0.750  0.750  0.000-   4 2.26  16 2.26  12 2.26   8 2.26
  45  0.000  0.250  0.750-  14 2.26  17 2.26   9 2.26  22 2.26
  46  0.500  0.250  0.750-  13 2.26  18 2.26  10 2.26  21 2.26
  47  0.000  0.750  0.750-  19 2.26  16 2.26  11 2.26  24 2.26
  48  0.500  0.750  0.750-  20 2.26  15 2.26  23 2.26  12 2.26
  49  0.000  0.000  0.000-   8 2.28  11 2.28   1 2.28  14 2.28
  50  0.500  0.000  0.000-  12 2.28   7 2.28   2 2.28  13 2.28
  51  0.000  0.500  0.000-   6 2.28   9 2.28  16 2.28   3 2.28
  52  0.500  0.500  0.000-   5 2.28  10 2.28   4 2.28  15 2.28
  53  0.250  0.000  0.750-  11 2.28  23 2.28  17 2.28  13 2.28
  54  0.750  0.000  0.750-  12 2.28  24 2.28  18 2.28  14 2.28
  55  0.250  0.500  0.750-   9 2.28  21 2.28  15 2.28  19 2.28
  56  0.750  0.500  0.750-  22 2.28  10 2.28  16 2.28  20 2.28
  57  0.250  0.250  0.500-  21 2.28  29 2.28  25 2.28  17 2.28
  58  0.750  0.250  0.500-  22 2.28  30 2.28  26 2.28  18 2.28
  59  0.250  0.750  0.500-  31 2.28  23 2.28  27 2.28  19 2.28
  60  0.750  0.750  0.500-  24 2.28  32 2.28  28 2.28  20 2.28
  61  0.000  0.250  0.250-   6 2.28  29 2.28  26 2.28   1 2.28
  62  0.500  0.250  0.250-   5 2.28  30 2.28   2 2.28  25 2.28
  63  0.000  0.750  0.250-   8 2.28  31 2.28  28 2.28   3 2.28
  64  0.500  0.750  0.250-  32 2.28   7 2.28   4 2.28  27 2.28

  LATTYP: Found a simple tetragonal cell.
 ALAT       =    10.5159522730
 C/A-ratio  =     0.9900440709

  Lattice vectors:

 A1 = (  10.5159522730,   0.0000000000,   0.0000000000)
 A2 = (   0.0000000000,  10.5159522730,   0.0000000000)
 A3 = (   0.0000000000,   0.0000000000,  10.4112561979)

Analysis of symmetry for initial positions (statically):
 Subroutine PRICEL returns following result:

  LATTYP: Found a body centered tetragonal cell.
 ALAT       =     5.2579761365
 C/A-ratio  =     1.9800881418

[...]

   8 primitive cells build up your supercell.

 Routine SETGRP: Setting up the symmetry group for a
 simple tetragonal supercell.

 Subroutine GETGRP returns: Found  8 space group operations
 (whereof  4 operations were pure point group operations)
 out of a pool of 16 trial point group operations.

The static configuration has the point symmetry S_4 .
 The point group associated with its full space group is D_2d.

Analysis of symmetry for dynamics (positions and initial velocities):
 Subroutine PRICEL returns following result:

[...]

The dynamic configuration has the point symmetry S_4 .
 The point group associated with its full space group is D_2d.

Analysis of structural, dynamic, and magnetic symmetry:
 Subroutine PRICEL returns following result:

[...]

The magnetic configuration has the point symmetry S_4 .
 The point group associated with its full space group is D_2d.

 Subroutine INISYM returns: Found  8 space group operations
 (whereof  4 operations are pure point group operations),
 and found     8 'primitive' translations

 KPOINTS: Automatic mesh

Automatic generation of k-mesh.
Space group operators:
 irot       det(A)        alpha          n_x          n_y          n_z        tau_x        tau_y        tau_z
    1     1.000000     0.000001     1.000000     0.000000     0.000000     0.000000     0.000000     0.000000
    2    -1.000000    90.000000     0.000000     0.000000    -1.000000     0.000000     0.000000     0.000000
    3     1.000000   180.000000     0.000000     0.000000     1.000000     0.000000     0.000000     0.000000
    4    -1.000000    90.000000     0.000000     0.000000     1.000000     0.000000     0.000000     0.000000
    5     1.000000   179.999999     0.000000     1.000000     0.000000     0.000000    -0.250000     0.250000
    6    -1.000000   179.999999     0.707107     0.707107     0.000000     0.000000    -0.250000     0.250000
    7     1.000000   179.999999     1.000000     0.000000     0.000000     0.000000    -0.250000     0.250000
    8    -1.000000   179.999999     0.707107    -0.707107     0.000000     0.000000    -0.250000     0.250000

 Subroutine IBZKPT returns following result:

 Found     18 irreducible k-points:

 Following reciprocal coordinates:
            Coordinates               Weight
  0.000000  0.000000  0.000000      1.000000
  0.250000  0.000000  0.000000      4.000000
  0.500000  0.000000  0.000000      2.000000
  0.250000  0.250000  0.000000      4.000000
  0.500000  0.250000  0.000000      4.000000
  0.500000  0.500000  0.000000      1.000000
  0.000000  0.000000  0.250000      2.000000
  0.250000  0.000000  0.250000      8.000000
  0.500000  0.000000  0.250000      4.000000
  0.250000  0.250000  0.250000      8.000000
  0.500000  0.250000  0.250000      8.000000
  0.500000  0.500000  0.250000      2.000000
  0.000000  0.000000  0.500000      1.000000
  0.250000  0.000000  0.500000      4.000000
  0.500000  0.000000  0.500000      2.000000
  0.250000  0.250000  0.500000      4.000000
  0.500000  0.250000  0.500000      4.000000
  0.500000  0.500000  0.500000      1.000000

 Following cartesian coordinates:
            Coordinates               Weight
  0.000000  0.000000  0.000000      1.000000
  0.023773  0.000000  0.000000      4.000000
  0.047547  0.000000  0.000000      2.000000
  0.023773  0.023773  0.000000      4.000000
  0.047547  0.023773  0.000000      4.000000
  0.047547  0.047547  0.000000      1.000000
  0.000000  0.000000  0.024012      2.000000
  0.023773  0.000000  0.024012      8.000000
  0.047547  0.000000  0.024012      4.000000
  0.023773  0.023773  0.024012      8.000000
  0.047547  0.023773  0.024012      8.000000
  0.047547  0.047547  0.024012      2.000000
  0.000000  0.000000  0.048025      1.000000
  0.023773  0.000000  0.048025      4.000000
  0.047547  0.000000  0.048025      2.000000
  0.023773  0.023773  0.048025      4.000000
  0.047547  0.023773  0.048025      4.000000
  0.047547  0.047547  0.048025      1.000000

 TETIRR: Found     96 inequivalent tetrahedra from      384

 Subroutine IBZKPT_HF returns following result:

 Found     64 k-points in 1st BZ
 the following     64 k-points will be used (e.g. in the exchange kernel)
 Following reciprocal coordinates:   # in IRBZ
  0.000000  0.000000  0.000000    0.01562500   1 t-inv F
  0.250000  0.000000  0.000000    0.01562500   2 t-inv F
  0.500000  0.000000  0.000000    0.01562500   3 t-inv F
  0.250000  0.250000  0.000000    0.01562500   4 t-inv F
  0.500000  0.250000  0.000000    0.01562500   5 t-inv F
  0.500000  0.500000  0.000000    0.01562500   6 t-inv F
  0.000000  0.000000  0.250000    0.01562500   7 t-inv F
  0.250000  0.000000  0.250000    0.01562500   8 t-inv F
  0.500000  0.000000  0.250000    0.01562500   9 t-inv F
  0.250000  0.250000  0.250000    0.01562500  10 t-inv F
  0.500000  0.250000  0.250000    0.01562500  11 t-inv F
  0.500000  0.500000  0.250000    0.01562500  12 t-inv F
  0.000000  0.000000  0.500000    0.01562500  13 t-inv F
  0.250000  0.000000  0.500000    0.01562500  14 t-inv F
  0.500000  0.000000  0.500000    0.01562500  15 t-inv F
  0.250000  0.250000  0.500000    0.01562500  16 t-inv F
  0.500000  0.250000  0.500000    0.01562500  17 t-inv F
  0.500000  0.500000  0.500000    0.01562500  18 t-inv F
  0.000000 -0.250000  0.000000    0.01562500   2 t-inv F
 -0.250000  0.000000  0.000000    0.01562500   2 t-inv F
  0.000000  0.250000  0.000000    0.01562500   2 t-inv F
  0.000000 -0.500000  0.000000    0.01562500   3 t-inv F
  0.250000 -0.250000  0.000000    0.01562500   4 t-inv F
[...]
      7.88696      2.62899      0.00000     0.00000  0.00000  0.47562 (-10.86828 17.00000)
      2.62899      7.88696      0.00000     0.00000 -0.00000  0.47562 (-10.86828 17.00000)
      7.88696      7.88696      0.00000    -0.00000 -0.00000  0.47562 (-10.86828 17.00000)
      0.00000      2.62899      7.80844    -0.00000 -0.00000  0.47562 (-10.86828 17.00000)
      5.25798      2.62899      7.80844    -0.00000 -0.00000  0.47562 (-10.86828 17.00000)
      0.00000      7.88696      7.80844     0.00000 -0.00000  0.47562 (-10.86828 17.00000)
      5.25798      7.88696      7.80844     0.00000 -0.00000  0.47562 (-10.86828 17.00000)
      0.00000      0.00000      0.00000     0.00000  0.00000  2.84507 ( -8.40012 14.00000)
      5.25798      0.00000      0.00000    -0.00000  0.00000  2.84507 ( -8.40012 14.00000)
      0.00000      5.25798      0.00000     0.00000 -0.00000  2.84507 ( -8.40012 14.00000)
      5.25798      5.25798      0.00000    -0.00000 -0.00000  2.84507 ( -8.40012 14.00000)
      2.62899      0.00000      7.80844    -0.00000  0.00000  2.84507 ( -8.40012 14.00000)
      7.88696      0.00000      7.80844     0.00000 -0.00000  2.84507 ( -8.40012 14.00000)
      2.62899      5.25798      7.80844     0.00000  0.00000  2.84507 ( -8.40012 14.00000)
      7.88696      5.25798      7.80844     0.00000 -0.00000  2.84507 ( -8.40012 14.00000)
      2.62899      2.62899      5.20563    -0.00000  0.00000  2.84507 ( -8.40012 14.00000)
      7.88696      2.62899      5.20563     0.00000 -0.00000  2.84507 ( -8.40012 14.00000)
      2.62899      7.88696      5.20563     0.00000  0.00000  2.84507 ( -8.40012 14.00000)
      7.88696      7.88696      5.20563     0.00000 -0.00000  2.84507 ( -8.40012 14.00000)
      0.00000      2.62899      2.60281     0.00000 -0.00000  2.84507 ( -8.40012 14.00000)
      5.25798      2.62899      2.60281     0.00000 -0.00000  2.84507 ( -8.40012 14.00000)
      0.00000      7.88696      2.60281     0.00000 -0.00000  2.84507 ( -8.40012 14.00000)
      5.25798      7.88696      2.60281    -0.00000  0.00000  2.84507 ( -8.40012 14.00000)
    total drift (improves with k-points):   0.00000  0.00000 -0.58456

[...]

 MACROSCOPIC STATIC DIELECTRIC TENSOR (including local field effects in DFT)
          16.081383     0.000000    -0.000000
           0.000000    16.081383     0.000000
           0.000000     0.000000    15.470704

  LATTYP: Found a simple tetragonal cell.
 ALAT       =    10.5159522730
 C/A-ratio  =     0.9900440709

[...]

Analysis of symmetry for initial positions (statically):
 Subroutine PRICEL returns following result:

[...]

The static configuration has the point symmetry S_4 .
 The point group associated with its full space group is D_2d.

Analysis of symmetry for dynamics (positions and initial velocities):
 Subroutine PRICEL returns following result:

[...]

The dynamic configuration has the point symmetry S_4 .
 The point group associated with its full space group is D_2d.

Analysis of structural, dynamic, and magnetic symmetry:
 Subroutine PRICEL returns following result:

  LATTYP: Found a body centered tetragonal cell.
 ALAT       =     5.2579761365
 C/A-ratio  =     1.9800881418

  Lattice vectors:

 A1 = (   2.6289880682,  -2.6289880682,   5.2056280989)
 A2 = (  -2.6289880682,   2.6289880682,   5.2056280989)
 A3 = (  -2.6289880682,  -2.6289880682,  -5.2056280989)

   8 primitive cells build up your supercell.

 Routine SETGRP: Setting up the symmetry group for a
 simple tetragonal supercell.

 Subroutine GETGRP returns: Found  8 space group operations
 (whereof  4 operations were pure point group operations)
 out of a pool of 16 trial point group operations.

The magnetic configuration has the point symmetry S_4 .
 The point group associated with its full space group is D_2d.

 Subroutine INISYM returns: Found  8 space group operations
 (whereof  4 operations are pure point group operations),
 and found     8 'primitive' translations

 MACROSCOPIC STATIC DIELECTRIC TENSOR (including local field effects in DFT)
          16.081383     0.000000    -0.000000
           0.000000    16.081383     0.000000
           0.000000     0.000000    15.470704

 PIEZOELECTRIC TENSOR (including local field effects)  for field in x, y, z        (e  Angst)
          XX          YY          ZZ          XY          YZ          ZX
  x    -0.13306     0.16833    -0.04133     0.00000   -55.86794     0.00000
  y     0.16837    -0.13281    -0.04173     0.00000     0.00000   -55.83276
  z     0.00025     0.00025    -0.00159   -57.13916     0.00000     0.00000

 PIEZOELECTRIC TENSOR (including local field effects)  for field in x, y, z        (C/m^2)
          XX          YY          ZZ          XY          YZ          ZX
  x     0.00000     0.00000     0.00000     0.00000    -0.77745     0.00000
  y     0.00000     0.00000     0.00000     0.00000     0.00000    -0.77696
  z     0.00000     0.00000     0.00000    -0.79514     0.00000     0.00000

 BORN EFFECTIVE CHARGES (including local field effects) (in e, cummulative output)
 ion    1
    1    -1.64081     0.00000     0.00000
    2    -0.00008    -1.77489    -1.18165
    3     0.00003    -1.14413    -1.66948
 ion    2
    1    -1.64081     0.00000     0.00000
    2    -0.00008    -1.77489    -1.18165
    3     0.00003    -1.14413    -1.66948
 ion    3
    1    -1.64081     0.00000     0.00000
    2    -0.00008    -1.77489    -1.18165
    3     0.00003    -1.14413    -1.66948
 ion    4
    1    -1.64081     0.00000     0.00000
    2    -0.00008    -1.77489    -1.18165
    3     0.00003    -1.14413    -1.66948
 ion    5
    1    -1.64059     0.00000     0.00000
    2     0.00008    -1.77489     1.18165
    3    -0.00003     1.14413    -1.66948
 ion    6
    1    -1.64059     0.00000     0.00000
    2     0.00008    -1.77489     1.18165
    3    -0.00003     1.14413    -1.66948
 ion    7
    1    -1.64059     0.00000     0.00000
    2     0.00008    -1.77489     1.18165
    3    -0.00003     1.14413    -1.66948
 ion    8
    1    -1.64059     0.00000     0.00000
    2     0.00008    -1.77489     1.18165
    3    -0.00003     1.14413    -1.66948
 ion    9
    1    -1.77489     0.00008     1.18165
    2     0.00000    -1.64060    -0.00000
    3     1.14413    -0.00003    -1.66948
 ion   10
    1    -1.77489     0.00008     1.18165
    2     0.00000    -1.64060    -0.00000
    3     1.14413    -0.00003    -1.66948
 ion   11
    1    -1.77489     0.00008     1.18165
    2     0.00000    -1.64060    -0.00000
    3     1.14413    -0.00003    -1.66948
 ion   12
    1    -1.77489     0.00008     1.18165
    2     0.00000    -1.64060    -0.00000
    3     1.14413    -0.00003    -1.66948
 ion   13
    1    -1.77489    -0.00008    -1.18165
    2     0.00000    -1.64081    -0.00000
    3    -1.14413     0.00003    -1.66948
 ion   14
    1    -1.77489    -0.00008    -1.18165
    2     0.00000    -1.64081    -0.00000
    3    -1.14413     0.00003    -1.66948
 ion   15
    1    -1.77489    -0.00008    -1.18165
    2     0.00000    -1.64081    -0.00000
    3    -1.14413     0.00003    -1.66948
 ion   16
    1    -1.77489    -0.00008    -1.18165
    2     0.00000    -1.64081    -0.00000
    3    -1.14413     0.00003    -1.66948
 ion   17
    1    -1.64059     0.00000     0.00000
    2     0.00008    -1.77489     1.18165
    3    -0.00003     1.14413    -1.66948
 ion   18
    1    -1.64059     0.00000     0.00000
    2     0.00008    -1.77489     1.18165
    3    -0.00003     1.14413    -1.66948
 ion   19
    1    -1.64059     0.00000     0.00000
    2     0.00008    -1.77489     1.18165
    3    -0.00003     1.14413    -1.66948
 ion   20
    1    -1.64059     0.00000     0.00000
    2     0.00008    -1.77489     1.18165
    3    -0.00003     1.14413    -1.66948
 ion   21
    1    -1.64081     0.00000     0.00000
    2    -0.00008    -1.77489    -1.18165
    3     0.00003    -1.14413    -1.66948
 ion   22
    1    -1.64081     0.00000     0.00000
    2    -0.00008    -1.77489    -1.18165
    3     0.00003    -1.14413    -1.66948
 ion   23
    1    -1.64081     0.00000     0.00000
    2    -0.00008    -1.77489    -1.18165
    3     0.00003    -1.14413    -1.66948
 ion   24
    1    -1.64081     0.00000     0.00000
    2    -0.00008    -1.77489    -1.18165
    3     0.00003    -1.14413    -1.66948
 ion   25
    1    -1.77489     0.00008     1.18165
    2     0.00000    -1.64060    -0.00000
    3     1.14413    -0.00003    -1.66948
 ion   26
    1    -1.77489     0.00008     1.18165
    2     0.00000    -1.64060    -0.00000
    3     1.14413    -0.00003    -1.66948
 ion   27
    1    -1.77489     0.00008     1.18165
    2     0.00000    -1.64060    -0.00000
    3     1.14413    -0.00003    -1.66948
 ion   28
    1    -1.77489     0.00008     1.18165
    2     0.00000    -1.64060    -0.00000
    3     1.14413    -0.00003    -1.66948
 ion   29
    1    -1.77489    -0.00008    -1.18165
    2     0.00000    -1.64081    -0.00000
    3    -1.14413     0.00003    -1.66948
 ion   30
    1    -1.77489    -0.00008    -1.18165
    2     0.00000    -1.64081    -0.00000
    3    -1.14413     0.00003    -1.66948
 ion   31
    1    -1.77489    -0.00008    -1.18165
    2     0.00000    -1.64081    -0.00000
    3    -1.14413     0.00003    -1.66948
 ion   32
    1    -1.77489    -0.00008    -1.18165
    2     0.00000    -1.64081    -0.00000
    3    -1.14413     0.00003    -1.66948
 ion   33
    1     0.62492    -0.24588    -0.00001
    2     0.24588     0.62492     0.00001
    3    -0.00000    -0.00000     0.48475
 ion   34
    1     0.62492    -0.24588    -0.00001
    2     0.24588     0.62492     0.00001
    3    -0.00000    -0.00000     0.48475
 ion   35
    1     0.62492    -0.24588    -0.00001
    2     0.24588     0.62492     0.00001
    3    -0.00000    -0.00000     0.48475
 ion   36
    1     0.62492    -0.24588    -0.00001
    2     0.24588     0.62492     0.00001
    3    -0.00000    -0.00000     0.48475
 ion   37
    1     0.62492     0.24588     0.00001
    2    -0.24588     0.62492    -0.00001
    3    -0.00000    -0.00000     0.48475
 ion   38
    1     0.62492     0.24588     0.00001
    2    -0.24588     0.62492    -0.00001
    3    -0.00000    -0.00000     0.48475
 ion   39
    1     0.62492     0.24588     0.00001
    2    -0.24588     0.62492    -0.00001
    3    -0.00000    -0.00000     0.48475
 ion   40
    1     0.62492     0.24588     0.00001
    2    -0.24588     0.62492    -0.00001
    3    -0.00000    -0.00000     0.48475
 ion   41
    1     0.62492    -0.24588    -0.00001
    2     0.24588     0.62492     0.00001
    3    -0.00000    -0.00000     0.48475
 ion   42
    1     0.62492    -0.24588    -0.00001
    2     0.24588     0.62492     0.00001
    3    -0.00000    -0.00000     0.48475
 ion   43
    1     0.62492    -0.24588    -0.00001
    2     0.24588     0.62492     0.00001
    3    -0.00000    -0.00000     0.48475
 ion   44
    1     0.62492    -0.24588    -0.00001
    2     0.24588     0.62492     0.00001
    3    -0.00000    -0.00000     0.48475
 ion   45
    1     0.62492     0.24588     0.00001
    2    -0.24588     0.62492    -0.00001
    3    -0.00000    -0.00000     0.48475
 ion   46
    1     0.62492     0.24588     0.00001
    2    -0.24588     0.62492    -0.00001
    3    -0.00000    -0.00000     0.48475
 ion   47
    1     0.62492     0.24588     0.00001
    2    -0.24588     0.62492    -0.00001
    3    -0.00000    -0.00000     0.48475
 ion   48
    1     0.62492     0.24588     0.00001
    2    -0.24588     0.62492    -0.00001
    3    -0.00000    -0.00000     0.48475
 ion   49
    1     2.79067     0.11227     0.00003
    2    -0.11228     2.79067    -0.00003
    3    -0.00000    -0.00000     2.85421
 ion   50
    1     2.79067     0.11227     0.00003
    2    -0.11228     2.79067    -0.00003
    3    -0.00000    -0.00000     2.85421
 ion   51
    1     2.79067     0.11227     0.00003
    2    -0.11228     2.79067    -0.00003
    3    -0.00000    -0.00000     2.85421
 ion   52
    1     2.79067     0.11227     0.00003
    2    -0.11228     2.79067    -0.00003
    3    -0.00000    -0.00000     2.85421
 ion   53
    1     2.79067    -0.11227    -0.00003
    2     0.11228     2.79067     0.00003
    3    -0.00000    -0.00000     2.85421
 ion   54
    1     2.79067    -0.11227    -0.00003
    2     0.11228     2.79067     0.00003
    3    -0.00000    -0.00000     2.85421
 ion   55
    1     2.79067    -0.11227    -0.00003
    2     0.11228     2.79067     0.00003
    3    -0.00000    -0.00000     2.85421
 ion   56
    1     2.79067    -0.11227    -0.00003
    2     0.11228     2.79067     0.00003
    3    -0.00000    -0.00000     2.85421
 ion   57
    1     2.79067     0.11227     0.00003
    2    -0.11228     2.79067    -0.00003
    3    -0.00000    -0.00000     2.85421
 ion   58
    1     2.79067     0.11227     0.00003
    2    -0.11228     2.79067    -0.00003
    3    -0.00000    -0.00000     2.85421
 ion   59
    1     2.79067     0.11227     0.00003
    2    -0.11228     2.79067    -0.00003
    3    -0.00000    -0.00000     2.85421
 ion   60
    1     2.79067     0.11227     0.00003
    2    -0.11228     2.79067    -0.00003
    3    -0.00000    -0.00000     2.85421
 ion   61
    1     2.79067    -0.11227    -0.00003
    2     0.11228     2.79067     0.00003
    3    -0.00000    -0.00000     2.85421
 ion   62
    1     2.79067    -0.11227    -0.00003
    2     0.11228     2.79067     0.00003
    3    -0.00000    -0.00000     2.85421
 ion   63
    1     2.79067    -0.11227    -0.00003
    2     0.11228     2.79067     0.00003
    3    -0.00000    -0.00000     2.85421
 ion   64
    1     2.79067    -0.11227    -0.00003
    2     0.11228     2.79067     0.00003
    3    -0.00000    -0.00000     2.85421

 writing wavefunctions

 total charge

[...]

 magnetization (x)

# of ion       s       p       d       tot
    1        0.000  -0.000   0.000  -0.000
    2        0.000  -0.000   0.000  -0.000
    3        0.000  -0.000   0.000  -0.000
    4        0.000  -0.000   0.000  -0.000
    5        0.000  -0.000   0.000  -0.000
    6        0.000  -0.000   0.000  -0.000
    7        0.000  -0.000   0.000  -0.000
    8        0.000  -0.000   0.000  -0.000
    9       -0.000   0.000   0.000   0.000
   10       -0.000   0.000   0.000   0.000
   11       -0.000   0.000   0.000   0.000
   12       -0.000   0.000   0.000   0.000
   13       -0.000   0.000   0.000   0.000
   14       -0.000   0.000   0.000   0.000
   15       -0.000   0.000   0.000   0.000
   16       -0.000   0.000   0.000   0.000
   17        0.000  -0.000   0.000  -0.000
   18        0.000  -0.000   0.000  -0.000
   19        0.000  -0.000   0.000  -0.000
   20        0.000  -0.000   0.000  -0.000
   21        0.000  -0.000   0.000  -0.000
   22        0.000  -0.000   0.000  -0.000
   23        0.000  -0.000   0.000  -0.000
   24        0.000  -0.000   0.000  -0.000
   25       -0.000   0.000   0.000   0.000
   26       -0.000   0.000   0.000   0.000
   27       -0.000   0.000   0.000   0.000
   28       -0.000   0.000   0.000   0.000
   29       -0.000   0.000   0.000   0.000
   30       -0.000   0.000   0.000   0.000
   31       -0.000   0.000   0.000   0.000
   32       -0.000   0.000   0.000   0.000
   33        0.000   0.000  -0.001   0.000
   34        0.000   0.000  -0.001   0.000
   35        0.000   0.000  -0.001   0.000
   36        0.000   0.000  -0.001   0.000
   37       -0.000  -0.000   0.001  -0.000
   38       -0.000  -0.000   0.001  -0.000
   39       -0.000  -0.000   0.001  -0.000
   40       -0.000  -0.000   0.001  -0.000
   41        0.000   0.000  -0.001   0.000
   42        0.000   0.000  -0.001   0.000
   43        0.000   0.000  -0.001   0.000
   44        0.000   0.000  -0.001   0.000
   45       -0.000  -0.000   0.001  -0.000
   46       -0.000  -0.000   0.001  -0.000
   47       -0.000  -0.000   0.001  -0.000
   48       -0.000  -0.000   0.001  -0.000
   49        0.020   0.054   3.671   3.745
   50        0.020   0.054   3.671   3.745
   51        0.020   0.054   3.671   3.745
   52        0.020   0.054   3.671   3.745
   53       -0.020  -0.054  -3.671  -3.745
   54       -0.020  -0.054  -3.671  -3.745
   55       -0.020  -0.054  -3.671  -3.745
   56       -0.020  -0.054  -3.671  -3.745
   57        0.020   0.054   3.671   3.745
   58        0.020   0.054   3.671   3.745
   59        0.020   0.054   3.671   3.745
   60        0.020   0.054   3.671   3.745
   61       -0.020  -0.054  -3.671  -3.745
   62       -0.020  -0.054  -3.671  -3.745
   63       -0.020  -0.054  -3.671  -3.745
   64       -0.020  -0.054  -3.671  -3.745
tot          0.000  -0.000   0.000   0.000

 BZINTS: Fermi energy:  4.987864;688.000000 electrons
         Band energy:***********;  BLOECHL correction:  0.000000