 vasp.5.4.4.18Apr17-6-g9f103f2a35 (build Oct 30 2023 17:30:16) complex

 executed on             LinuxIFC date 2024.06.29  18:25:51

 INCAR:
 POTCAR:    PAW_PBE S 06Sep2000
 POTCAR:     PAW_PBE Cu_pv 06Sep2000
 POTCAR:     PAW_PBE Fe_pv 02Aug2007

   TITEL  = PAW_PBE S 06Sep2000
   POMASS =   32.066; ZVAL   =    6.000    mass and valenz
   ENMAX  =  258.689; ENMIN  =  194.016 eV

   TITEL  = PAW_PBE Cu_pv 06Sep2000
   POMASS =   63.546; ZVAL   =   17.000    mass and valenz
   ENMAX  =  368.648; ENMIN  =  276.486 eV

   TITEL  = PAW_PBE Fe_pv 02Aug2007
   POMASS =   55.847; ZVAL   =   14.000    mass and valenz
   ENMAX  =  293.238; ENMIN  =  219.928 eV

  PAW_PBE S 06Sep2000                   :
   PAW_PBE Cu_pv 06Sep2000              :
   PAW_PBE Fe_pv 02Aug2007              :

 POSCAR: Fe16 Cu16 S32
  positions in direct lattice
 exchange correlation table for  LEXCH =       14
   RHO(1)=    0.500       N(1)  =     2000
   RHO(2)=  100.500       N(2)  =     4000

 ion  position               nearest neighbor table
   1  0.126  0.126  0.119-  37 2.25  61 2.27  41 2.28  49 2.29
   2  0.626  0.126  0.119-  38 2.25  62 2.27  42 2.28  50 2.29
   3  0.126  0.626  0.119-  39 2.25  63 2.27  43 2.28  51 2.29
   4  0.626  0.626  0.119-  40 2.25  64 2.27  44 2.28  52 2.29
   5  0.374  0.374  0.119-  39 2.25  62 2.27  41 2.28  52 2.29
   6  0.874  0.374  0.119-  40 2.25  61 2.27  42 2.28  51 2.29
   7  0.374  0.874  0.119-  37 2.25  64 2.27  43 2.28  50 2.29
   8  0.874  0.874  0.119-  38 2.25  63 2.27  44 2.28  49 2.29
   9  0.124  0.374  0.869-  41 2.25  51 2.27  45 2.28  55 2.29
  10  0.624  0.374  0.869-  42 2.25  52 2.27  46 2.28  56 2.29
  11  0.124  0.874  0.869-  43 2.25  49 2.27  47 2.28  53 2.29
  12  0.624  0.874  0.869-  44 2.25  50 2.27  48 2.28  54 2.29
  13  0.376  0.126  0.869-  41 2.25  50 2.27  46 2.28  53 2.29
  14  0.876  0.126  0.869-  42 2.25  49 2.27  45 2.28  54 2.29
  15  0.376  0.626  0.869-  43 2.25  52 2.27  48 2.28  55 2.29
  16  0.876  0.626  0.869-  44 2.25  51 2.27  47 2.28  56 2.29
  17  0.124  0.124  0.619-  45 2.25  53 2.27  33 2.28  57 2.29
  18  0.624  0.124  0.619-  46 2.25  54 2.27  34 2.28  58 2.29
  19  0.124  0.624  0.619-  47 2.25  55 2.27  35 2.28  59 2.29
  20  0.624  0.624  0.619-  48 2.25  56 2.27  36 2.28  60 2.29
  21  0.376  0.376  0.619-  46 2.25  55 2.27  36 2.28  57 2.29
  22  0.876  0.376  0.619-  45 2.25  56 2.27  35 2.28  58 2.29
  23  0.376  0.876  0.619-  48 2.25  53 2.27  34 2.28  59 2.29
  24  0.876  0.876  0.619-  47 2.25  54 2.27  33 2.28  60 2.29
  25  0.374  0.124  0.369-  34 2.25  57 2.27  37 2.28  62 2.29
  26  0.874  0.124  0.369-  33 2.25  58 2.27  38 2.28  61 2.29
  27  0.374  0.624  0.369-  36 2.25  59 2.27  39 2.28  64 2.29
  28  0.874  0.624  0.369-  35 2.25  60 2.27  40 2.28  63 2.29
  29  0.126  0.376  0.369-  35 2.25  57 2.27  39 2.28  61 2.29
  30  0.626  0.376  0.369-  36 2.25  58 2.27  40 2.28  62 2.29
  31  0.126  0.876  0.369-  33 2.25  59 2.27  37 2.28  63 2.29
  32  0.626  0.876  0.369-  34 2.25  60 2.27  38 2.28  64 2.29
  33  0.000  0.000  0.505-  26 2.25  31 2.25  17 2.28  24 2.28
  34  0.500  0.000  0.505-  25 2.25  32 2.25  18 2.28  23 2.28
  35  0.000  0.500  0.505-  28 2.25  29 2.25  19 2.28  22 2.28
  36  0.500  0.500  0.505-  27 2.25  30 2.25  20 2.28  21 2.28
  37  0.250  0.000  0.255-   1 2.25   7 2.25  25 2.28  31 2.28
  38  0.750  0.000  0.255-   2 2.25   8 2.25  26 2.28  32 2.28
  39  0.250  0.500  0.255-   3 2.25   5 2.25  27 2.28  29 2.28
  40  0.750  0.500  0.255-   4 2.25   6 2.25  28 2.28  30 2.28
  41  0.250  0.250  0.005-   9 2.25  13 2.25   1 2.28   5 2.28
  42  0.750  0.250  0.005-  10 2.25  14 2.25   2 2.28   6 2.28
  43  0.250  0.750  0.005-  11 2.25  15 2.25   3 2.28   7 2.28
  44  0.750  0.750  0.005-  12 2.25  16 2.25   4 2.28   8 2.28
  45  0.000  0.250  0.755-  17 2.25  22 2.25   9 2.28  14 2.28
  46  0.500  0.250  0.755-  18 2.25  21 2.25  10 2.28  13 2.28
  47  0.000  0.750  0.755-  19 2.25  24 2.25  11 2.28  16 2.28
  48  0.500  0.750  0.755-  20 2.25  23 2.25  12 2.28  15 2.28
  49  0.000  0.000  0.006-  11 2.27  14 2.27   1 2.29   8 2.29
  50  0.500  0.000  0.006-  12 2.27  13 2.27   2 2.29   7 2.29
  51  0.000  0.500  0.006-   9 2.27  16 2.27   3 2.29   6 2.29
  52  0.500  0.500  0.006-  10 2.27  15 2.27   4 2.29   5 2.29
  53  0.250  0.000  0.756-  17 2.27  23 2.27  11 2.29  13 2.29
  54  0.750  0.000  0.756-  18 2.27  24 2.27  12 2.29  14 2.29
  55  0.250  0.500  0.756-  19 2.27  21 2.27   9 2.29  15 2.29
  56  0.750  0.500  0.756-  20 2.27  22 2.27  10 2.29  16 2.29
  57  0.250  0.250  0.506-  25 2.27  29 2.27  17 2.29  21 2.29
  58  0.750  0.250  0.506-  26 2.27  30 2.27  18 2.29  22 2.29
  59  0.250  0.750  0.506-  27 2.27  31 2.27  19 2.29  23 2.29
  60  0.750  0.750  0.506-  28 2.27  32 2.27  20 2.29  24 2.29
  61  0.000  0.250  0.256-   1 2.27   6 2.27  26 2.29  29 2.29
  62  0.500  0.250  0.256-   2 2.27   5 2.27  25 2.29  30 2.29
  63  0.000  0.750  0.256-   3 2.27   8 2.27  28 2.29  31 2.29
  64  0.500  0.750  0.256-   4 2.27   7 2.27  27 2.29  32 2.29

  LATTYP: Found a base centered orthorhombic cell.
 ALAT       =    14.0601267935
 B/A-ratio  =     1.1106242992
 C/A-ratio  =     0.7421624394

  Lattice vectors:

 A1 = (  10.4919250000,   0.5499140000,   0.0000000000)
 A2 = (  -0.5499140000, -10.4919250000,   0.0000000000)
 A3 = (   0.0000000000,   0.0000000000, -10.4348980000)

Analysis of symmetry for initial positions (statically):
 Subroutine PRICEL returns following result:

  LATTYP: Found a face centered orthorhombic cell.
 ALAT       =     7.0300633967
 B/A-ratio  =     1.1106242992
 C/A-ratio  =     1.4843248789

[...]

   8 primitive cells build up your supercell.

 Routine SETGRP: Setting up the symmetry group for a
 base centered orthorhombic supercell.

 Subroutine GETGRP returns: Found  4 space group operations
 (whereof  2 operations were pure point group operations)
 out of a pool of  8 trial point group operations.

The static configuration has the point symmetry C_2 .
 The point group associated with its full space group is C_2v.

Analysis of symmetry for dynamics (positions and initial velocities):
 Subroutine PRICEL returns following result:

[...]

The dynamic configuration has the point symmetry C_2 .
 The point group associated with its full space group is C_2v.

Analysis of structural, dynamic, and magnetic symmetry:
 Subroutine PRICEL returns following result:

  LATTYP: Found a face centered orthorhombic cell.
 ALAT       =     7.0300633967
 B/A-ratio  =     1.1106242992
 C/A-ratio  =     1.4843248789

  Lattice vectors:

 A1 = (  -2.7604597500,  -2.7604597500,   5.2174490000)
 A2 = (  -2.4855027500,   2.4855027500,   5.2174490000)
 A3 = (  -5.2459625000,  -0.2749570000,   0.0000000000)

   8 primitive cells build up your supercell.

 Routine SETGRP: Setting up the symmetry group for a
 base centered orthorhombic supercell.

 Subroutine GETGRP returns: Found  4 space group operations
 (whereof  2 operations were pure point group operations)
 out of a pool of  8 trial point group operations.

The magnetic configuration has the point symmetry C_2 .
 The point group associated with its full space group is C_2v.

 Subroutine INISYM returns: Found  4 space group operations
 (whereof  2 operations are pure point group operations),
 and found     8 'primitive' translations

 KPOINTS: Automatic mesh

Automatic generation of k-mesh.
Space group operators:
 irot       det(A)        alpha          n_x          n_y          n_z        tau_x        tau_y        tau_z
    1     1.000000     0.000001     1.000000     0.000000     0.000000     0.000000     0.000000     0.000000
    2     1.000000   179.999999     0.000000     0.000000     1.000000     0.000000     0.000000     0.000000
    3    -1.000000   180.000000     0.707107     0.707107     0.000000    -0.750000     0.000000     0.750000
    4    -1.000000   180.000000     0.707107    -0.707107     0.000000    -0.750000     0.000000     0.750000

 Subroutine IBZKPT returns following result:

 Found      6 irreducible k-points:

 Following reciprocal coordinates:
            Coordinates               Weight
  0.000000  0.000000  0.000000      1.000000
  0.500000  0.000000  0.000000      2.000000
  0.500000  0.500000  0.000000      1.000000
  0.000000  0.000000  0.500000      1.000000
  0.500000  0.000000  0.500000      2.000000
  0.500000  0.500000  0.500000      1.000000

 Following cartesian coordinates:
            Coordinates               Weight
  0.000000  0.000000  0.000000      1.000000
  0.047787 -0.002505  0.000000      2.000000
  0.045282  0.045282  0.000000      1.000000
  0.000000  0.000000  0.047916      1.000000
  0.047787 -0.002505  0.047916      2.000000
  0.045282  0.045282  0.047916      1.000000

 TETIRR: Found     12 inequivalent tetrahedra from       48

 Subroutine IBZKPT_HF returns following result:

 Found      8 k-points in 1st BZ
 the following      8 k-points will be used (e.g. in the exchange kernel)
 Following reciprocal coordinates:   # in IRBZ
  0.000000  0.000000  0.000000    0.12500000   1 t-inv F
  0.500000  0.000000  0.000000    0.12500000   2 t-inv F
  0.500000  0.500000  0.000000    0.12500000   3 t-inv F
  0.000000  0.000000  0.500000    0.12500000   4 t-inv F
  0.500000  0.000000  0.500000    0.12500000   5 t-inv F
  0.500000  0.500000  0.500000    0.12500000   6 t-inv F
 -0.000000 -0.500000  0.000000    0.12500000   2 t-inv F spinflp
 -0.000000 -0.500000  0.500000    0.12500000   5 t-inv F spinflp

 SYSTEM =  CuFeS2
 POSCAR =  Fe16 Cu16 S32

 Startparameter for this run:
   NWRITE =      2    write-flag & timer
   PREC   = accura    normal or accurate (medium, high low for compatibility)
   ISTART =      0    job   : 0-new  1-cont  2-samecut
   ICHARG =      1    charge: 1-file 2-atom 10-const
   ISPIN  =      2    spin polarized calculation?
   LNONCOLLINEAR =      F non collinear calculations
   LSORBIT =      F    spin-orbit coupling
   INIWAV =      1    electr: 0-lowe 1-rand  2-diag
   LASPH  =      F    aspherical Exc in radial PAW
   METAGGA=      F    non-selfconsistent MetaGGA calc.

 Electronic Relaxation 1
   ENCUT  =  700.0 eV  51.45 Ry    7.17 a.u.  22.67 22.67 22.51*2*pi/ulx,y,z
   ENINI  =  700.0     initial cutoff
   ENAUG  =  758.2 eV  augmentation charge cutoff
   NELM   =    500;   NELMIN=  2; NELMDL=  0     # of ELM steps
   EDIFF  = 0.1E-07   stopping-criterion for ELM
   LREAL  =      F    real-space projection
   NLSPLINE    = F    spline interpolate recip. space projectors
   LCOMPAT=      F    compatible to vasp.4.4
   GGA_COMPAT  = T    GGA compatible to vasp.4.4-vasp.4.6
   LMAXPAW     = -100 max onsite density
   LMAXMIX     =    4 max onsite mixed and CHGCAR
   VOSKOWN=      0    Vosko Wilk Nusair interpolation
   ROPT   =    0.00000   0.00000   0.00000
 Ionic relaxation
   EDIFFG = -.1E-04   stopping-criterion for IOM
   NSW    =      0    number of steps for IOM
   NBLOCK =      1;   KBLOCK =      1    inner block; outer block
   IBRION =     -1    ionic relax: 0-MD 1-quasi-New 2-CG
   NFREE  =      0    steps in history (QN), initial steepest desc. (CG)
   ISIF   =      2    stress and relaxation
[...]
   0.417E+02 -.845E+00 0.326E+02   -.425E+02 0.817E+00 -.329E+02   0.842E+00 0.259E-01 0.287E+00   0.599E-05 -.675E-05 0.271E-05
   -.417E+02 0.845E+00 0.326E+02   0.425E+02 -.817E+00 -.329E+02   -.842E+00 -.259E-01 0.287E+00   -.599E-05 0.675E-05 0.271E-05
   -.417E+02 0.845E+00 0.326E+02   0.425E+02 -.817E+00 -.329E+02   -.842E+00 -.259E-01 0.287E+00   -.599E-05 0.675E-05 0.271E-05
   -.417E+02 0.845E+00 0.326E+02   0.425E+02 -.817E+00 -.329E+02   -.842E+00 -.259E-01 0.287E+00   -.599E-05 0.675E-05 0.271E-05
   -.417E+02 0.845E+00 0.326E+02   0.425E+02 -.817E+00 -.329E+02   -.842E+00 -.259E-01 0.287E+00   -.599E-05 0.675E-05 0.271E-05
   0.845E+00 -.417E+02 0.326E+02   -.817E+00 0.425E+02 -.329E+02   -.259E-01 -.842E+00 0.287E+00   0.675E-05 -.599E-05 0.271E-05
   0.845E+00 -.417E+02 0.326E+02   -.817E+00 0.425E+02 -.329E+02   -.259E-01 -.842E+00 0.287E+00   0.675E-05 -.599E-05 0.271E-05
   0.845E+00 -.417E+02 0.326E+02   -.817E+00 0.425E+02 -.329E+02   -.259E-01 -.842E+00 0.287E+00   0.675E-05 -.599E-05 0.271E-05
   0.845E+00 -.417E+02 0.326E+02   -.817E+00 0.425E+02 -.329E+02   -.259E-01 -.842E+00 0.287E+00   0.675E-05 -.599E-05 0.271E-05
   -.845E+00 0.417E+02 0.326E+02   0.817E+00 -.425E+02 -.329E+02   0.259E-01 0.842E+00 0.287E+00   -.675E-05 0.599E-05 0.271E-05
   -.845E+00 0.417E+02 0.326E+02   0.817E+00 -.425E+02 -.329E+02   0.259E-01 0.842E+00 0.287E+00   -.675E-05 0.599E-05 0.271E-05
   -.845E+00 0.417E+02 0.326E+02   0.817E+00 -.425E+02 -.329E+02   0.259E-01 0.842E+00 0.287E+00   -.675E-05 0.599E-05 0.271E-05
   -.845E+00 0.417E+02 0.326E+02   0.817E+00 -.425E+02 -.329E+02   0.259E-01 0.842E+00 0.287E+00   -.675E-05 0.599E-05 0.271E-05
   -.417E+02 0.845E+00 0.326E+02   0.425E+02 -.817E+00 -.329E+02   -.842E+00 -.259E-01 0.287E+00   -.599E-05 0.675E-05 0.271E-05
   -.417E+02 0.845E+00 0.326E+02   0.425E+02 -.817E+00 -.329E+02   -.842E+00 -.259E-01 0.287E+00   -.599E-05 0.675E-05 0.271E-05
   -.417E+02 0.845E+00 0.326E+02   0.425E+02 -.817E+00 -.329E+02   -.842E+00 -.259E-01 0.287E+00   -.599E-05 0.675E-05 0.271E-05
   -.417E+02 0.845E+00 0.326E+02   0.425E+02 -.817E+00 -.329E+02   -.842E+00 -.259E-01 0.287E+00   -.599E-05 0.675E-05 0.271E-05
   0.417E+02 -.845E+00 0.326E+02   -.425E+02 0.817E+00 -.329E+02   0.842E+00 0.259E-01 0.287E+00   0.599E-05 -.675E-05 0.271E-05
   0.417E+02 -.845E+00 0.326E+02   -.425E+02 0.817E+00 -.329E+02   0.842E+00 0.259E-01 0.287E+00   0.599E-05 -.675E-05 0.271E-05
   0.417E+02 -.845E+00 0.326E+02   -.425E+02 0.817E+00 -.329E+02   0.842E+00 0.259E-01 0.287E+00   0.599E-05 -.675E-05 0.271E-05
   0.417E+02 -.845E+00 0.326E+02   -.425E+02 0.817E+00 -.329E+02   0.842E+00 0.259E-01 0.287E+00   0.599E-05 -.675E-05 0.271E-05
   0.845E+00 -.417E+02 0.326E+02   -.817E+00 0.425E+02 -.329E+02   -.259E-01 -.842E+00 0.287E+00   0.675E-05 -.599E-05 0.271E-05
   0.845E+00 -.417E+02 0.326E+02   -.817E+00 0.425E+02 -.329E+02   -.259E-01 -.842E+00 0.287E+00   0.675E-05 -.599E-05 0.271E-05
   0.845E+00 -.417E+02 0.326E+02   -.817E+00 0.425E+02 -.329E+02   -.259E-01 -.842E+00 0.287E+00   0.675E-05 -.599E-05 0.271E-05
   0.845E+00 -.417E+02 0.326E+02   -.817E+00 0.425E+02 -.329E+02   -.259E-01 -.842E+00 0.287E+00   0.675E-05 -.599E-05 0.271E-05
   -.845E+00 0.417E+02 0.326E+02   0.817E+00 -.425E+02 -.329E+02   0.259E-01 0.842E+00 0.287E+00   -.675E-05 0.599E-05 0.271E-05
   -.845E+00 0.417E+02 0.326E+02   0.817E+00 -.425E+02 -.329E+02   0.259E-01 0.842E+00 0.287E+00   -.675E-05 0.599E-05 0.271E-05
   -.845E+00 0.417E+02 0.326E+02   0.817E+00 -.425E+02 -.329E+02   0.259E-01 0.842E+00 0.287E+00   -.675E-05 0.599E-05 0.271E-05
   -.845E+00 0.417E+02 0.326E+02   0.817E+00 -.425E+02 -.329E+02   0.259E-01 0.842E+00 0.287E+00   -.675E-05 0.599E-05 0.271E-05
   -.236E-07 0.260E-07 -.382E+02   -.142E-13 -.213E-13 0.367E+02   0.364E-26 -.711E-25 0.154E+01   0.294E-12 0.398E-12 -.250E-04
   -.236E-07 0.260E-07 -.382E+02   0.888E-15 -.284E-13 0.367E+02   -.614E-25 -.103E-24 0.154E+01   -.543E-12 0.476E-12 -.250E-04
   -.236E-07 0.260E-07 -.382E+02   -.568E-13 -.639E-13 0.367E+02   -.182E-25 0.129E-24 0.154E+01   0.284E-12 -.778E-13 -.250E-04
   -.236E-07 0.260E-07 -.382E+02   -.702E-13 -.568E-13 0.367E+02   -.525E-25 -.291E-25 0.154E+01   -.569E-12 0.130E-12 -.250E-04
   0.260E-07 -.236E-07 -.382E+02   -.227E-12 -.142E-12 0.367E+02   -.347E-25 -.129E-25 0.154E+01   -.380E-12 0.451E-12 -.250E-04
   0.260E-07 -.236E-07 -.382E+02   -.242E-12 -.199E-12 0.367E+02   -.469E-25 0.000E+00 0.154E+01   0.117E-13 0.362E-12 -.250E-04
   0.260E-07 -.235E-07 -.382E+02   -.256E-12 -.171E-12 0.367E+02   -.102E-24 -.258E-25 0.154E+01   -.332E-12 -.131E-13 -.250E-04
   0.260E-07 -.236E-07 -.382E+02   -.227E-12 -.171E-12 0.367E+02   0.784E-25 0.388E-25 0.154E+01   0.430E-13 0.800E-13 -.250E-04
   -.236E-07 0.261E-07 -.382E+02   -.355E-13 -.586E-13 0.367E+02   0.475E-25 -.533E-25 0.154E+01   -.250E-12 0.519E-12 -.250E-04
   -.236E-07 0.261E-07 -.382E+02   -.355E-13 -.108E-12 0.367E+02   -.323E-26 -.258E-25 0.154E+01   -.215E-12 0.532E-12 -.250E-04
   -.236E-07 0.261E-07 -.382E+02   -.284E-13 -.711E-13 0.367E+02   0.549E-25 0.323E-25 0.154E+01   -.847E-13 -.177E-12 -.250E-04
   -.236E-07 0.260E-07 -.382E+02   -.568E-13 -.135E-12 0.367E+02   0.719E-25 -.129E-24 0.154E+01   -.275E-12 -.136E-12 -.250E-04
   0.260E-07 -.236E-07 -.382E+02   -.251E-12 -.224E-12 0.367E+02   -.502E-25 0.190E-25 0.154E+01   0.299E-12 0.597E-12 -.250E-04
   0.260E-07 -.236E-07 -.382E+02   -.249E-12 -.226E-12 0.367E+02   0.355E-25 -.517E-25 0.154E+01   -.522E-12 0.731E-12 -.250E-04
   0.260E-07 -.236E-07 -.382E+02   -.258E-12 -.251E-12 0.367E+02   0.800E-25 0.258E-25 0.154E+01   0.387E-12 -.232E-12 -.250E-04
   0.260E-07 -.235E-07 -.382E+02   -.256E-12 -.194E-12 0.367E+02   -.501E-25 -.388E-25 0.154E+01   -.445E-12 -.165E-12 -.250E-04
   -.525E-07 0.583E-07 -.309E+02   0.139E-12 0.888E-13 0.291E+02   0.132E-25 0.103E-24 0.180E+01   0.359E-12 0.777E-13 0.114E-04
   -.525E-07 0.583E-07 -.309E+02   0.167E-12 0.853E-13 0.291E+02   0.242E-26 -.103E-24 0.180E+01   -.495E-12 0.960E-13 0.114E-04
   -.525E-07 0.583E-07 -.309E+02   0.171E-12 0.817E-13 0.291E+02   0.380E-25 -.775E-25 0.180E+01   0.329E-12 -.270E-12 0.114E-04
   -.525E-07 0.583E-07 -.309E+02   0.142E-12 0.114E-12 0.291E+02   0.727E-25 0.646E-25 0.180E+01   -.508E-12 -.648E-13 0.114E-04
   0.583E-07 -.525E-07 -.309E+02   -.995E-13 0.135E-12 0.291E+02   -.812E-25 0.517E-25 0.180E+01   -.181E-12 0.711E-13 0.114E-04
   0.583E-07 -.525E-07 -.309E+02   -.711E-13 0.135E-12 0.291E+02   0.555E-26 -.232E-25 0.180E+01   -.210E-12 0.967E-13 0.114E-04
   0.583E-07 -.525E-07 -.309E+02   -.604E-13 0.149E-12 0.291E+02   0.210E-25 0.517E-25 0.180E+01   -.127E-12 -.129E-12 0.114E-04
   0.583E-07 -.525E-07 -.309E+02   -.462E-13 0.149E-12 0.291E+02   -.364E-25 -.258E-25 0.180E+01   -.223E-12 -.125E-12 0.114E-04
   -.525E-07 0.583E-07 -.309E+02   0.675E-13 0.320E-13 0.291E+02   0.703E-25 -.258E-25 0.180E+01   -.341E-12 0.372E-12 0.114E-04
   -.525E-07 0.584E-07 -.309E+02   0.675E-13 -.258E-13 0.291E+02   0.557E-25 0.388E-25 0.180E+01   -.473E-15 0.368E-12 0.114E-04
   -.525E-07 0.583E-07 -.309E+02   0.128E-12 0.346E-13 0.291E+02   0.000E+00 -.129E-25 0.180E+01   -.247E-12 -.483E-12 0.114E-04
   -.525E-07 0.583E-07 -.309E+02   0.995E-13 0.622E-14 0.291E+02   -.170E-25 0.517E-25 0.180E+01   0.848E-14 -.403E-12 0.114E-04
   0.583E-07 -.525E-07 -.309E+02   -.109E-12 0.939E-13 0.291E+02   0.691E-25 0.129E-25 0.180E+01   0.332E-12 0.222E-12 0.114E-04
   0.583E-07 -.525E-07 -.309E+02   -.110E-12 0.101E-12 0.291E+02   -.872E-25 0.000E+00 0.180E+01   -.607E-12 0.376E-12 0.114E-04
   0.583E-07 -.525E-07 -.309E+02   -.128E-12 0.612E-13 0.291E+02   -.162E-25 0.517E-25 0.180E+01   0.274E-12 -.457E-12 0.114E-04
   0.583E-07 -.525E-07 -.309E+02   -.129E-12 0.609E-13 0.291E+02   -.848E-26 0.355E-25 0.180E+01   -.498E-12 -.341E-12 0.114E-04
   0.430E-06 0.430E-06 -.627E+02   0.227E-12 0.343E-13 -.682E-12   -.423E-15 -.103E-24 0.627E+02   -.372E-11 0.365E-11 -.131E-03

 POSITION                                       TOTAL-FORCE (eV/Angst)
      1.39154      1.38649      1.24569         0.003842     -0.002407     -0.022300
      6.63751      1.66145      1.24569         0.003842     -0.002407     -0.022300
      1.66650      6.63246      1.24569         0.003842     -0.002407     -0.022300
      6.91246      6.90741      1.24569         0.003842     -0.002407     -0.022300
      4.12938      4.13443      1.24569        -0.003842      0.002407     -0.022300
      9.37534      4.40938      1.24569        -0.003842      0.002407     -0.022300
      4.40433      9.38039      1.24569        -0.003842      0.002407     -0.022300
      9.65029      9.65535      1.24569        -0.003842      0.002407     -0.022300
      1.51144      3.99190      9.07186         0.002407     -0.003842     -0.022300
      6.75741      4.26685      9.07186         0.002407     -0.003842     -0.022300
      1.78640      9.23786      9.07186         0.002407     -0.003842     -0.022300
      7.03236      9.51282      9.07186         0.002407     -0.003842     -0.022300
      4.00948      1.52902      9.07186        -0.002407      0.003842     -0.022300
      9.25544      1.80398      9.07186        -0.002407      0.003842     -0.022300
      4.28443      6.77499      9.07186        -0.002407      0.003842     -0.022300
      9.53039      7.04994      9.07186        -0.002407      0.003842     -0.022300
      1.36892      1.37397      6.46314        -0.003842      0.002407     -0.022300
      6.61488      1.64892      6.46314        -0.003842      0.002407     -0.022300
      1.64387      6.61993      6.46314        -0.003842      0.002407     -0.022300
      6.88983      6.89489      6.46314        -0.003842      0.002407     -0.022300
      4.15200      4.14695      6.46314         0.003842     -0.002407     -0.022300
      9.39797      4.42191      6.46314         0.003842     -0.002407     -0.022300
      4.42696      9.39292      6.46314         0.003842     -0.002407     -0.022300
      9.67292      9.66787      6.46314         0.003842     -0.002407     -0.022300
      3.99695      1.50639      3.85441         0.002407     -0.003842     -0.022300
      9.24291      1.78135      3.85441         0.002407     -0.003842     -0.022300
      4.27190      6.75236      3.85441         0.002407     -0.003842     -0.022300
      9.51787      7.02731      3.85441         0.002407     -0.003842     -0.022300
      1.52397      4.01453      3.85441        -0.002407      0.003842     -0.022300
      6.76993      4.28948      3.85441        -0.002407      0.003842     -0.022300
      1.79893      9.26049      3.85441        -0.002407      0.003842     -0.022300
      7.04489      9.53545      3.85441        -0.002407      0.003842     -0.022300
      0.00000      0.00000      5.26878        -0.000000      0.000000      0.016860
      5.24596      0.27496      5.26878        -0.000000      0.000000      0.016860
      0.27496      5.24596      5.26878        -0.000000      0.000000      0.016860
      5.52092      5.52092      5.26878        -0.000000      0.000000      0.016860
      2.62298      0.13748      2.66005        -0.000000      0.000000      0.016860
      7.86894      0.41244      2.66005        -0.000000      0.000000      0.016860
      2.89794      5.38344      2.66005        -0.000000      0.000000      0.016860
      8.14390      5.65840      2.66005        -0.000000      0.000000      0.016860
      2.76046      2.76046      0.05133        -0.000000      0.000000      0.016860
      8.00642      3.03542      0.05133        -0.000000      0.000000      0.016860
      3.03542      8.00642      0.05133        -0.000000      0.000000      0.016860
      8.28138      8.28138      0.05133        -0.000000      0.000000      0.016860
      0.13748      2.62298      7.87750        -0.000000      0.000000      0.016860
      5.38344      2.89794      7.87750        -0.000000      0.000000      0.016860
      0.41244      7.86894      7.87750        -0.000000      0.000000      0.016860
      5.65840      8.14390      7.87750        -0.000000      0.000000      0.016860
      0.00000      0.00000      0.06601        -0.000000      0.000000      0.027740
      5.24596      0.27496      0.06601        -0.000000      0.000000      0.027740
      0.27496      5.24596      0.06601        -0.000000      0.000000      0.027740
      5.52092      5.52092      0.06601        -0.000000      0.000000      0.027740
      2.62298      0.13748      7.89218        -0.000000      0.000000      0.027740
      7.86894      0.41244      7.89218        -0.000000      0.000000      0.027740
      2.89794      5.38344      7.89218        -0.000000      0.000000      0.027740
      8.14390      5.65840      7.89218        -0.000000      0.000000      0.027740
      2.76046      2.76046      5.28346        -0.000000      0.000000      0.027740
      8.00642      3.03542      5.28346        -0.000000      0.000000      0.027740
      3.03542      8.00642      5.28346        -0.000000      0.000000      0.027740
      8.28138      8.28138      5.28346        -0.000000      0.000000      0.027740
      0.13748      2.62298      2.67474        -0.000000      0.000000      0.027740
      5.38344      2.89794      2.67474        -0.000000      0.000000      0.027740
      0.41244      7.86894      2.67474        -0.000000      0.000000      0.027740
      5.65840      8.14390      2.67474        -0.000000      0.000000      0.027740
    total drift:                                0.000000      0.000000      0.010342

  FREE ENERGIE OF THE ION-ELECTRON SYSTEM (eV)
  free  energy   TOTEN  =      -326.94659487 eV

  energy  without entropy=     -326.94659487  energy(sigma->0) =     -326.94659487

 writing wavefunctions

 total charge

[...]

 magnetization (x)

# of ion       s       p       d       tot
    1       -0.001  -0.026   0.000  -0.027
    2       -0.001  -0.026   0.000  -0.027
    3       -0.001  -0.026   0.000  -0.027
    4       -0.001  -0.026   0.000  -0.027
    5       -0.001  -0.026   0.000  -0.027
    6       -0.001  -0.026   0.000  -0.027
    7       -0.001  -0.026   0.000  -0.027
    8       -0.001  -0.026   0.000  -0.027
    9        0.001   0.026   0.000   0.027
   10        0.001   0.026   0.000   0.027
   11        0.001   0.026   0.000   0.027
   12        0.001   0.026   0.000   0.027
   13        0.001   0.026   0.000   0.027
   14        0.001   0.026   0.000   0.027
   15        0.001   0.026   0.000   0.027
   16        0.001   0.026   0.000   0.027
   17       -0.001  -0.026   0.000  -0.027
   18       -0.001  -0.026   0.000  -0.027
   19       -0.001  -0.026   0.000  -0.027
   20       -0.001  -0.026   0.000  -0.027
   21       -0.001  -0.026   0.000  -0.027
   22       -0.001  -0.026   0.000  -0.027
   23       -0.001  -0.026   0.000  -0.027
   24       -0.001  -0.026   0.000  -0.027
   25        0.001   0.026   0.000   0.027
   26        0.001   0.026   0.000   0.027
   27        0.001   0.026   0.000   0.027
   28        0.001   0.026   0.000   0.027
   29        0.001   0.026   0.000   0.027
   30        0.001   0.026   0.000   0.027
   31        0.001   0.026   0.000   0.027
   32        0.001   0.026   0.000   0.027
   33        0.000  -0.000   0.003   0.003
   34        0.000  -0.000   0.003   0.003
   35        0.000  -0.000   0.003   0.003
   36        0.000  -0.000   0.003   0.003
   37       -0.000   0.000  -0.004  -0.003
   38       -0.000   0.000  -0.004  -0.003
   39       -0.000   0.000  -0.004  -0.003
   40       -0.000   0.000  -0.004  -0.003
   41        0.000  -0.000   0.003   0.003
   42        0.000  -0.000   0.003   0.003
   43        0.000  -0.000   0.003   0.003
   44        0.000  -0.000   0.003   0.003
   45       -0.000   0.000  -0.004  -0.003
   46       -0.000   0.000  -0.004  -0.003
   47       -0.000   0.000  -0.004  -0.003
   48       -0.000   0.000  -0.004  -0.003
   49        0.020   0.053   3.667   3.740
   50        0.020   0.053   3.667   3.740
   51        0.020   0.053   3.667   3.740
   52        0.020   0.053   3.667   3.740
   53       -0.020  -0.053  -3.667  -3.740
   54       -0.020  -0.053  -3.667  -3.740
   55       -0.020  -0.053  -3.667  -3.740
   56       -0.020  -0.053  -3.667  -3.740
   57        0.020   0.053   3.667   3.740
   58        0.020   0.053   3.667   3.740
   59        0.020   0.053   3.667   3.740
   60        0.020   0.053   3.667   3.740
   61       -0.020  -0.053  -3.667  -3.740
   62       -0.020  -0.053  -3.667  -3.740
   63       -0.020  -0.053  -3.667  -3.740
   64       -0.020  -0.053  -3.667  -3.740
tot         -0.002   0.002  -0.002  -0.001

 BZINTS: Fermi energy:  5.170018;688.000000 electrons
         Band energy:***********;  BLOECHL correction:  0.000000