 vasp.5.4.4.18Apr17-6-g9f103f2a35 (build Oct 30 2023 17:30:16) complex

 executed on             LinuxIFC date 2024.04.10  07:09:51

 INCAR:
 POTCAR:    PAW_PBE S 06Sep2000
 POTCAR:     PAW_PBE Cu_pv 06Sep2000
 POTCAR:     PAW_PBE Fe_pv 02Aug2007

   TITEL  = PAW_PBE S 06Sep2000
   POMASS =   32.066; ZVAL   =    6.000    mass and valenz
   ENMAX  =  258.689; ENMIN  =  194.016 eV

   TITEL  = PAW_PBE Cu_pv 06Sep2000
   POMASS =   63.546; ZVAL   =   17.000    mass and valenz
   ENMAX  =  368.648; ENMIN  =  276.486 eV

   TITEL  = PAW_PBE Fe_pv 02Aug2007
   POMASS =   55.847; ZVAL   =   14.000    mass and valenz
   ENMAX  =  293.238; ENMIN  =  219.928 eV

  PAW_PBE S 06Sep2000                   :
   PAW_PBE Cu_pv 06Sep2000              :
   PAW_PBE Fe_pv 02Aug2007              :

 POSCAR: generated by phonopy
  positions in direct lattice
  velocities in cartesian coordinates
 exchange correlation table for  LEXCH =       14
   RHO(1)=    0.500       N(1)  =     2000
   RHO(2)=  100.500       N(2)  =     4000

 ion  position               nearest neighbor table
   1  0.126  0.124  0.125-  41 2.26  37 2.26  61 2.27  49 2.28
   2  0.626  0.124  0.125-  42 2.26  38 2.26  62 2.27  50 2.28
   3  0.126  0.624  0.125-  43 2.26  39 2.26  63 2.27  51 2.28
   4  0.626  0.624  0.125-  44 2.26  40 2.26  64 2.27  52 2.28
   5  0.374  0.374  0.125-  39 2.26  41 2.26  52 2.27  62 2.28
   6  0.874  0.374  0.125-  40 2.26  42 2.26  51 2.27  61 2.28
   7  0.374  0.874  0.125-  37 2.26  43 2.26  50 2.27  64 2.28
   8  0.874  0.874  0.125-  38 2.26  44 2.26  49 2.27  63 2.28
   9  0.125  0.373  0.875-  41 2.26  45 2.26  51 2.27  55 2.27
  10  0.625  0.373  0.875-  42 2.26  46 2.26  52 2.27  56 2.27
  11  0.125  0.873  0.875-  43 2.26  47 2.26  49 2.27  53 2.27
  12  0.625  0.873  0.875-  44 2.26  48 2.26  50 2.27  54 2.27
  13  0.375  0.125  0.875-  41 2.26  46 2.26  50 2.28  53 2.28
  14  0.875  0.125  0.875-  42 2.26  45 2.26  49 2.28  54 2.28
  15  0.375  0.625  0.875-  43 2.26  48 2.26  52 2.28  55 2.28
  16  0.875  0.625  0.875-  44 2.26  47 2.26  51 2.28  56 2.28
  17  0.124  0.124  0.625-  45 2.26  33 2.26  57 2.27  53 2.28
  18  0.624  0.124  0.625-  46 2.26  34 2.26  58 2.27  54 2.28
  19  0.124  0.624  0.625-  47 2.26  35 2.26  59 2.27  55 2.28
  20  0.624  0.624  0.625-  48 2.26  36 2.26  60 2.27  56 2.28
  21  0.376  0.374  0.625-  36 2.26  46 2.26  55 2.27  57 2.28
  22  0.876  0.374  0.625-  35 2.26  45 2.26  56 2.27  58 2.28
  23  0.376  0.874  0.625-  34 2.26  48 2.26  53 2.27  59 2.28
  24  0.876  0.874  0.625-  33 2.26  47 2.26  54 2.27  60 2.28
  25  0.375  0.123  0.375-  37 2.26  34 2.26  57 2.27  62 2.27
  26  0.875  0.123  0.375-  38 2.26  33 2.26  58 2.27  61 2.27
  27  0.375  0.623  0.375-  39 2.26  36 2.26  59 2.27  64 2.27
  28  0.875  0.623  0.375-  40 2.26  35 2.26  60 2.27  63 2.27
  29  0.125  0.375  0.375-  39 2.26  35 2.26  57 2.28  61 2.28
  30  0.625  0.375  0.375-  40 2.26  36 2.26  58 2.28  62 2.28
  31  0.125  0.875  0.375-  37 2.26  33 2.26  59 2.28  63 2.28
  32  0.625  0.875  0.375-  38 2.26  34 2.26  60 2.28  64 2.28
  33  1.000  0.001  0.500-  24 2.26  31 2.26  26 2.26  17 2.26
  34  0.500  0.001  0.500-  23 2.26  32 2.26  25 2.26  18 2.26
  35  1.000  0.501  0.500-  22 2.26  29 2.26  28 2.26  19 2.26
  36  0.500  0.501  0.500-  21 2.26  30 2.26  27 2.26  20 2.26
  37  0.250  0.001  0.250-   7 2.26  31 2.26  25 2.26   1 2.26
  38  0.750  0.001  0.250-   8 2.26  32 2.26  26 2.26   2 2.26
  39  0.250  0.501  0.250-   5 2.26  29 2.26  27 2.26   3 2.26
  40  0.750  0.501  0.250-   6 2.26  30 2.26  28 2.26   4 2.26
  41  0.250  0.251  1.000-   1 2.26  13 2.26   9 2.26   5 2.26
  42  0.750  0.251  1.000-   2 2.26  14 2.26  10 2.26   6 2.26
  43  0.250  0.751  1.000-   3 2.26  15 2.26  11 2.26   7 2.26
  44  0.750  0.751  1.000-   4 2.26  16 2.26  12 2.26   8 2.26
  45  0.000  0.251  0.750-  17 2.26  14 2.26   9 2.26  22 2.26
  46  0.500  0.251  0.750-  18 2.26  13 2.26  10 2.26  21 2.26
  47  0.000  0.751  0.750-  19 2.26  16 2.26  11 2.26  24 2.26
  48  0.500  0.751  0.750-  20 2.26  15 2.26  12 2.26  23 2.26
  49  1.000  0.001  0.000-   8 2.27  11 2.27  14 2.28   1 2.28
  50  0.500  0.001  0.000-   7 2.27  12 2.27  13 2.28   2 2.28
  51  1.000  0.501  0.000-   6 2.27   9 2.27  16 2.28   3 2.28
  52  0.500  0.501  0.000-   5 2.27  10 2.27  15 2.28   4 2.28
  53  0.250  0.001  0.750-  23 2.27  11 2.27  13 2.28  17 2.28
  54  0.750  0.001  0.750-  24 2.27  12 2.27  14 2.28  18 2.28
  55  0.250  0.501  0.750-  21 2.27   9 2.27  15 2.28  19 2.28
  56  0.750  0.501  0.750-  22 2.27  10 2.27  16 2.28  20 2.28
  57  0.250  0.251  0.500-  17 2.27  25 2.27  29 2.28  21 2.28
  58  0.750  0.251  0.500-  18 2.27  26 2.27  30 2.28  22 2.28
  59  0.250  0.751  0.500-  19 2.27  27 2.27  31 2.28  23 2.28
  60  0.750  0.751  0.500-  20 2.27  28 2.27  32 2.28  24 2.28
  61  0.000  0.251  0.250-   1 2.27  26 2.27  29 2.28   6 2.28
  62  0.500  0.251  0.250-   2 2.27  25 2.27  30 2.28   5 2.28
  63  0.000  0.751  0.250-   3 2.27  28 2.27  31 2.28   8 2.28
  64  0.500  0.751  0.250-   4 2.27  27 2.27  32 2.28   7 2.28

  LATTYP: Found a simple monoclinic cell.
 ALAT       =    14.9262235713
 B/A-ratio  =     0.7045462579
 C/A-ratio  =     1.5737276212
 COS(beta)  =    -0.9500150391

  Lattice vectors:

 A1 = ( -10.6976294055,   0.0000000000, -10.4092687161)
 A2 = (   0.0000000000, -10.5162149617,   0.0000000000)
 A3 = (  10.8793238668,   0.0000000000,  20.8185374322)

Analysis of symmetry for initial positions (statically):
 Subroutine PRICEL returns following result:

  LATTYP: Found a base centered monoclinic cell.
 ALAT       =    11.5810803850
 B/A-ratio  =     0.4540256441
 C/A-ratio  =     0.8989536376
 COS(beta)  =    -0.8113226473

[...]

   8 primitive cells build up your supercell.

 Routine SETGRP: Setting up the symmetry group for a
 simple monoclinic supercell.

 Subroutine GETGRP returns: Found  2 space group operations
 (whereof  1 operations were pure point group operations)
 out of a pool of  4 trial point group operations.

The static configuration has the point symmetry C_1 .
 The point group associated with its full space group is C_2 .

Analysis of symmetry for dynamics (positions and initial velocities):
 Subroutine PRICEL returns following result:

[...]

The dynamic configuration has the point symmetry C_1 .
 The point group associated with its full space group is C_2 .

Analysis of structural, dynamic, and magnetic symmetry:
 Subroutine PRICEL returns following result:

[...]

The magnetic configuration has the point symmetry C_1 .
 The point group associated with its full space group is C_2 .

 Subroutine INISYM returns: Found  2 space group operations
 (whereof  1 operations are pure point group operations),
 and found     8 'primitive' translations

 KPOINTS: Automatic mesh

Automatic generation of k-mesh.
Space group operators:
 irot       det(A)        alpha          n_x          n_y          n_z        tau_x        tau_y        tau_z
    1     1.000000     0.000000     1.000000     0.000000     0.000000     0.000000     0.000000     0.000000
    2     1.000000   180.000000     0.000000     1.000000     0.000000    -0.250000     0.000000    -0.250000

 Subroutine IBZKPT returns following result:

 Found     30 irreducible k-points:

 Following reciprocal coordinates:
            Coordinates               Weight
  0.000000  0.000000  0.000000      1.000000
  0.250000  0.000000 -0.000000      2.000000
  0.500000  0.000000 -0.000000      1.000000
  0.000000  0.250000  0.000000      2.000000
  0.250000  0.250000 -0.000000      4.000000
  0.500000  0.250000 -0.000000      2.000000
  0.000000  0.500000  0.000000      1.000000
  0.250000  0.500000 -0.000000      2.000000
  0.500000  0.500000 -0.000000      1.000000
  0.000000  0.000000  0.250000      2.000000
  0.250000  0.000000  0.250000      2.000000
  0.500000  0.000000  0.250000      2.000000
 -0.250000  0.000000  0.250000      2.000000
  0.000000  0.250000  0.250000      4.000000
  0.250000  0.250000  0.250000      4.000000
  0.500000  0.250000  0.250000      4.000000
 -0.250000  0.250000  0.250000      4.000000
  0.000000  0.500000  0.250000      2.000000
  0.250000  0.500000  0.250000      2.000000
  0.500000  0.500000  0.250000      2.000000
 -0.250000  0.500000  0.250000      2.000000
  0.000000  0.000000  0.500000      1.000000
  0.250000  0.000000  0.500000      2.000000
  0.500000  0.000000  0.500000      1.000000
  0.000000  0.250000  0.500000      2.000000
  0.250000  0.250000  0.500000      4.000000
  0.500000  0.250000  0.500000      2.000000
  0.000000  0.500000  0.500000      1.000000
  0.250000  0.500000  0.500000      2.000000
  0.500000  0.500000  0.500000      1.000000

 Following cartesian coordinates:
            Coordinates               Weight
  0.000000  0.000000  0.000000      1.000000
  0.023773  0.000000 -0.000415      2.000000
  0.047547  0.000000 -0.000830      1.000000
  0.000000  0.023773  0.000000      2.000000
  0.023773  0.023773 -0.000415      4.000000
  0.047547  0.023773 -0.000830      2.000000
  0.000000  0.047546  0.000000      1.000000
  0.023773  0.047546 -0.000415      2.000000
  0.047547  0.047546 -0.000830      1.000000
  0.000000  0.000000  0.024017      2.000000
  0.023773  0.000000  0.023602      2.000000
  0.047547  0.000000  0.023187      2.000000
 -0.023773  0.000000  0.024432      2.000000
  0.000000  0.023773  0.024017      4.000000
  0.023773  0.023773  0.023602      4.000000
  0.047547  0.023773  0.023187      4.000000
 -0.023773  0.023773  0.024432      4.000000
  0.000000  0.047546  0.024017      2.000000
  0.023773  0.047546  0.023602      2.000000
  0.047547  0.047546  0.023187      2.000000
 -0.023773  0.047546  0.024432      2.000000
  0.000000  0.000000  0.048034      1.000000
  0.023773  0.000000  0.047619      2.000000
  0.047547  0.000000  0.047204      1.000000
  0.000000  0.023773  0.048034      2.000000
  0.023773  0.023773  0.047619      4.000000
  0.047547  0.023773  0.047204      2.000000
  0.000000  0.047546  0.048034      1.000000
  0.023773  0.047546  0.047619      2.000000
  0.047547  0.047546  0.047204      1.000000

 TETIRR: Found    192 inequivalent tetrahedra from      384

 Subroutine IBZKPT_HF returns following result:

 Found     64 k-points in 1st BZ
 the following     64 k-points will be used (e.g. in the exchange kernel)
 Following reciprocal coordinates:   # in IRBZ
  0.000000  0.000000  0.000000    0.01562500   1 t-inv F
  0.250000  0.000000 -0.000000    0.01562500   2 t-inv F
  0.500000  0.000000 -0.000000    0.01562500   3 t-inv F
  0.000000  0.250000  0.000000    0.01562500   4 t-inv F
  0.250000  0.250000 -0.000000    0.01562500   5 t-inv F
  0.500000  0.250000 -0.000000    0.01562500   6 t-inv F
  0.000000  0.500000  0.000000    0.01562500   7 t-inv F
  0.250000  0.500000 -0.000000    0.01562500   8 t-inv F
  0.500000  0.500000 -0.000000    0.01562500   9 t-inv F
  0.000000  0.000000  0.250000    0.01562500  10 t-inv F
  0.250000  0.000000  0.250000    0.01562500  11 t-inv F
  0.500000  0.000000  0.250000    0.01562500  12 t-inv F
 -0.250000  0.000000  0.250000    0.01562500  13 t-inv F
[...]
      8.06511      7.89708     10.40923     0.00778  0.02415  0.47665 (-10.86831 17.00000)
      0.13981      2.63897      7.80699     0.00662 -0.02483  0.47440 (-10.86831 17.00000)
      5.39778      2.63897      7.80699     0.00662 -0.02483  0.47440 (-10.86831 17.00000)
      0.13981      7.89708      7.80699     0.00662 -0.02483  0.47440 (-10.86831 17.00000)
      5.39778      7.89708      7.80699     0.00662 -0.02483  0.47440 (-10.86831 17.00000)
     10.51421      0.00964      0.00018     0.04257 -0.02055  2.85313 ( -8.40018 14.00000)
      5.25624      0.00964      0.00018     0.04257 -0.02055  2.85313 ( -8.40018 14.00000)
     10.51421      5.26775      0.00018     0.04257 -0.02055  2.85313 ( -8.40018 14.00000)
      5.25624      5.26775      0.00018     0.04257 -0.02055  2.85313 ( -8.40018 14.00000)
      2.76698      0.00964      7.80677     0.04274  0.02030  2.85324 ( -8.40018 14.00000)
      8.02495      0.00964      7.80677     0.04274  0.02030  2.85324 ( -8.40018 14.00000)
      2.76698      5.26775      7.80677     0.04274  0.02030  2.85324 ( -8.40018 14.00000)
      8.02495      5.26775      7.80677     0.04274  0.02030  2.85324 ( -8.40018 14.00000)
      2.71811      2.63869      5.20482     0.04257 -0.02055  2.85313 ( -8.40018 14.00000)
      7.97607      2.63869      5.20482     0.04257 -0.02055  2.85313 ( -8.40018 14.00000)
      2.71811      7.89680      5.20482     0.04257 -0.02055  2.85313 ( -8.40018 14.00000)
      7.97607      7.89680      5.20482     0.04257 -0.02055  2.85313 ( -8.40018 14.00000)
      0.04715      2.63869      2.60214     0.04274  0.02030  2.85324 ( -8.40018 14.00000)
      5.30512      2.63869      2.60214     0.04274  0.02030  2.85324 ( -8.40018 14.00000)
      0.04715      7.89680      2.60214     0.04274  0.02030  2.85324 ( -8.40018 14.00000)
      5.30512      7.89680      2.60214     0.04274  0.02030  2.85324 ( -8.40018 14.00000)
    total drift (improves with k-points):   0.04138 -0.00650 -0.46582

[...]

 MACROSCOPIC STATIC DIELECTRIC TENSOR (including local field effects in DFT)
          16.100814     0.000000    -0.201203
           0.000000    16.093375     0.000000
          -0.201065     0.000000    15.496009

  LATTYP: Found a simple monoclinic cell.
 ALAT       =    14.9262235713
 B/A-ratio  =     0.7045462579
 C/A-ratio  =     1.5737276212
 COS(beta)  =    -0.9500150391

[...]

Analysis of symmetry for initial positions (statically):
 Subroutine PRICEL returns following result:

[...]

The static configuration has the point symmetry C_1 .
 The point group associated with its full space group is C_2 .

Analysis of symmetry for dynamics (positions and initial velocities):
 Subroutine PRICEL returns following result:

[...]

The dynamic configuration has the point symmetry C_1 .
 The point group associated with its full space group is C_2 .

Analysis of structural, dynamic, and magnetic symmetry:
 Subroutine PRICEL returns following result:

  LATTYP: Found a base centered monoclinic cell.
 ALAT       =    11.5810803850
 B/A-ratio  =     0.4540256441
 C/A-ratio  =     0.8989536376
 COS(beta)  =    -0.8113226473

  Lattice vectors:

 A1 = (  -2.5381365054,  -2.6290537404,   5.2046343580)
 A2 = (  -2.5381365054,   2.6290537404,   5.2046343580)
 A3 = (  -0.1816944613,   0.0000000000, -10.4092687161)

   8 primitive cells build up your supercell.

 Routine SETGRP: Setting up the symmetry group for a
 simple monoclinic supercell.

 Subroutine GETGRP returns: Found  2 space group operations
 (whereof  1 operations were pure point group operations)
 out of a pool of  4 trial point group operations.

The magnetic configuration has the point symmetry C_1 .
 The point group associated with its full space group is C_2 .

 Subroutine INISYM returns: Found  2 space group operations
 (whereof  1 operations are pure point group operations),
 and found     8 'primitive' translations

 MACROSCOPIC STATIC DIELECTRIC TENSOR (including local field effects in DFT)
          16.100814     0.000000    -0.201203
           0.000000    16.093375     0.000000
          -0.201065     0.000000    15.496009

 PIEZOELECTRIC TENSOR (including local field effects)  for field in x, y, z        (e  Angst)
          XX          YY          ZZ          XY          YZ          ZX
  x     0.04593     0.02392    -0.07837     0.60301   -56.34915     0.03088
  y    -1.63356     1.64156    -1.96320     0.00000     0.00000   -58.31883
  z    -0.07548     0.02769     0.06249   -56.80278     1.50396    -0.05719

 PIEZOELECTRIC TENSOR (including local field effects)  for field in x, y, z        (C/m^2)
          XX          YY          ZZ          XY          YZ          ZX
  x     0.00000     0.00000     0.00000     0.00839    -0.78428     0.00000
  y    -0.02274     0.02285    -0.02732     0.00000     0.00000    -0.81169
  z     0.00000     0.00000     0.00000    -0.79059     0.02093     0.00000

 BORN EFFECTIVE CHARGES (including local field effects) (in e, cummulative output)
 ion    1
    1    -1.64429    -0.01786    -0.01867
    2    -0.02802    -1.77964    -1.18215
    3    -0.02864    -1.14550    -1.67022
 ion    2
    1    -1.64429    -0.01786    -0.01867
    2    -0.02802    -1.77964    -1.18215
    3    -0.02864    -1.14550    -1.67022
 ion    3
    1    -1.64429    -0.01786    -0.01867
    2    -0.02802    -1.77964    -1.18215
    3    -0.02864    -1.14550    -1.67022
 ion    4
    1    -1.64429    -0.01786    -0.01867
    2    -0.02802    -1.77964    -1.18215
    3    -0.02864    -1.14550    -1.67022
 ion    5
    1    -1.64425     0.01833    -0.01876
    2     0.02802    -1.77964     1.18215
    3    -0.02866     1.14575    -1.67021
 ion    6
    1    -1.64425     0.01833    -0.01876
    2     0.02802    -1.77964     1.18215
    3    -0.02866     1.14575    -1.67021
 ion    7
    1    -1.64425     0.01833    -0.01876
    2     0.02802    -1.77964     1.18215
    3    -0.02866     1.14575    -1.67021
 ion    8
    1    -1.64425     0.01833    -0.01876
    2     0.02802    -1.77964     1.18215
    3    -0.02866     1.14575    -1.67021
 ion    9
    1    -1.72891     0.00031     1.17853
    2     0.00000    -1.60620    -0.00000
    3     1.12452     0.00009    -1.61825
 ion   10
    1    -1.72891     0.00031     1.17853
    2     0.00000    -1.60620    -0.00000
    3     1.12452     0.00009    -1.61825
 ion   11
    1    -1.72891     0.00031     1.17853
    2     0.00000    -1.60620    -0.00000
    3     1.12452     0.00009    -1.61825
 ion   12
    1    -1.72891     0.00031     1.17853
    2     0.00000    -1.60620    -0.00000
    3     1.12452     0.00009    -1.61825
 ion   13
    1    -1.82998     0.00028    -1.17878
    2     0.00000    -1.68350    -0.00000
    3    -1.16435     0.00017    -1.72786
 ion   14
    1    -1.82998     0.00028    -1.17878
    2     0.00000    -1.68350    -0.00000
    3    -1.16435     0.00017    -1.72786
 ion   15
    1    -1.82998     0.00028    -1.17878
    2     0.00000    -1.68350    -0.00000
    3    -1.16435     0.00017    -1.72786
 ion   16
    1    -1.82998     0.00028    -1.17878
    2     0.00000    -1.68350    -0.00000
    3    -1.16435     0.00017    -1.72786
 ion   17
    1    -1.64425     0.01833    -0.01876
    2     0.02802    -1.77964     1.18215
    3    -0.02866     1.14575    -1.67021
 ion   18
    1    -1.64425     0.01833    -0.01876
    2     0.02802    -1.77964     1.18215
    3    -0.02866     1.14575    -1.67021
 ion   19
    1    -1.64425     0.01833    -0.01876
    2     0.02802    -1.77964     1.18215
    3    -0.02866     1.14575    -1.67021
 ion   20
    1    -1.64425     0.01833    -0.01876
    2     0.02802    -1.77964     1.18215
    3    -0.02866     1.14575    -1.67021
 ion   21
    1    -1.64429    -0.01786    -0.01867
    2    -0.02802    -1.77964    -1.18215
    3    -0.02864    -1.14550    -1.67022
 ion   22
    1    -1.64429    -0.01786    -0.01867
    2    -0.02802    -1.77964    -1.18215
    3    -0.02864    -1.14550    -1.67022
 ion   23
    1    -1.64429    -0.01786    -0.01867
    2    -0.02802    -1.77964    -1.18215
    3    -0.02864    -1.14550    -1.67022
 ion   24
    1    -1.64429    -0.01786    -0.01867
    2    -0.02802    -1.77964    -1.18215
    3    -0.02864    -1.14550    -1.67022
 ion   25
    1    -1.72891     0.00031     1.17853
    2     0.00000    -1.60620    -0.00000
    3     1.12452     0.00009    -1.61825
 ion   26
    1    -1.72891     0.00031     1.17853
    2     0.00000    -1.60620    -0.00000
    3     1.12452     0.00009    -1.61825
 ion   27
    1    -1.72891     0.00031     1.17853
    2     0.00000    -1.60620    -0.00000
    3     1.12452     0.00009    -1.61825
 ion   28
    1    -1.72891     0.00031     1.17853
    2     0.00000    -1.60620    -0.00000
    3     1.12452     0.00009    -1.61825
 ion   29
    1    -1.82998     0.00028    -1.17878
    2     0.00000    -1.68350    -0.00000
    3    -1.16435     0.00017    -1.72786
 ion   30
    1    -1.82998     0.00028    -1.17878
    2     0.00000    -1.68350    -0.00000
    3    -1.16435     0.00017    -1.72786
 ion   31
    1    -1.82998     0.00028    -1.17878
    2     0.00000    -1.68350    -0.00000
    3    -1.16435     0.00017    -1.72786
 ion   32
    1    -1.82998     0.00028    -1.17878
    2     0.00000    -1.68350    -0.00000
    3    -1.16435     0.00017    -1.72786
 ion   33
    1     0.62588    -0.24518    -0.00433
    2     0.24522     0.62306    -0.01008
    3     0.00713     0.02425     0.48392
 ion   34
    1     0.62588    -0.24518    -0.00433
    2     0.24522     0.62306    -0.01008
    3     0.00713     0.02425     0.48392
 ion   35
    1     0.62588    -0.24518    -0.00433
    2     0.24522     0.62306    -0.01008
    3     0.00713     0.02425     0.48392
 ion   36
    1     0.62588    -0.24518    -0.00433
    2     0.24522     0.62306    -0.01008
    3     0.00713     0.02425     0.48392
 ion   37
    1     0.62533     0.24379    -0.00878
    2    -0.24522     0.62306     0.01008
    3     0.00598    -0.02473     0.48168
 ion   38
    1     0.62533     0.24379    -0.00878
    2    -0.24522     0.62306     0.01008
    3     0.00598    -0.02473     0.48168
 ion   39
    1     0.62533     0.24379    -0.00878
    2    -0.24522     0.62306     0.01008
    3     0.00598    -0.02473     0.48168
 ion   40
    1     0.62533     0.24379    -0.00878
    2    -0.24522     0.62306     0.01008
    3     0.00598    -0.02473     0.48168
 ion   41
    1     0.62588    -0.24518    -0.00433
    2     0.24522     0.62306    -0.01008
    3     0.00713     0.02425     0.48392
 ion   42
    1     0.62588    -0.24518    -0.00433
    2     0.24522     0.62306    -0.01008
    3     0.00713     0.02425     0.48392
 ion   43
    1     0.62588    -0.24518    -0.00433
    2     0.24522     0.62306    -0.01008
    3     0.00713     0.02425     0.48392
 ion   44
    1     0.62588    -0.24518    -0.00433
    2     0.24522     0.62306    -0.01008
    3     0.00713     0.02425     0.48392
 ion   45
    1     0.62533     0.24379    -0.00878
    2    -0.24522     0.62306     0.01008
    3     0.00598    -0.02473     0.48168
 ion   46
    1     0.62533     0.24379    -0.00878
    2    -0.24522     0.62306     0.01008
    3     0.00598    -0.02473     0.48168
 ion   47
    1     0.62533     0.24379    -0.00878
    2    -0.24522     0.62306     0.01008
    3     0.00598    -0.02473     0.48168
 ion   48
    1     0.62533     0.24379    -0.00878
    2    -0.24522     0.62306     0.01008
    3     0.00598    -0.02473     0.48168
 ion   49
    1     2.79720     0.11811     0.02502
    2    -0.12043     2.80142     0.00153
    3     0.04193    -0.02045     2.86041
 ion   50
    1     2.79720     0.11811     0.02502
    2    -0.12043     2.80142     0.00153
    3     0.04193    -0.02045     2.86041
 ion   51
    1     2.79720     0.11811     0.02502
    2    -0.12043     2.80142     0.00153
    3     0.04193    -0.02045     2.86041
 ion   52
    1     2.79720     0.11811     0.02502
    2    -0.12043     2.80142     0.00153
    3     0.04193    -0.02045     2.86041
 ion   53
    1     2.79902    -0.11778     0.02576
    2     0.12043     2.80142    -0.00153
    3     0.04209     0.02040     2.86052
 ion   54
    1     2.79902    -0.11778     0.02576
    2     0.12043     2.80142    -0.00153
    3     0.04209     0.02040     2.86052
 ion   55
    1     2.79902    -0.11778     0.02576
    2     0.12043     2.80142    -0.00153
    3     0.04209     0.02040     2.86052
 ion   56
    1     2.79902    -0.11778     0.02576
    2     0.12043     2.80142    -0.00153
    3     0.04209     0.02040     2.86052
 ion   57
    1     2.79720     0.11811     0.02502
    2    -0.12043     2.80142     0.00153
    3     0.04193    -0.02045     2.86041
 ion   58
    1     2.79720     0.11811     0.02502
    2    -0.12043     2.80142     0.00153
    3     0.04193    -0.02045     2.86041
 ion   59
    1     2.79720     0.11811     0.02502
    2    -0.12043     2.80142     0.00153
    3     0.04193    -0.02045     2.86041
 ion   60
    1     2.79720     0.11811     0.02502
    2    -0.12043     2.80142     0.00153
    3     0.04193    -0.02045     2.86041
 ion   61
    1     2.79902    -0.11778     0.02576
    2     0.12043     2.80142    -0.00153
    3     0.04209     0.02040     2.86052
 ion   62
    1     2.79902    -0.11778     0.02576
    2     0.12043     2.80142    -0.00153
    3     0.04209     0.02040     2.86052
 ion   63
    1     2.79902    -0.11778     0.02576
    2     0.12043     2.80142    -0.00153
    3     0.04209     0.02040     2.86052
 ion   64
    1     2.79902    -0.11778     0.02576
    2     0.12043     2.80142    -0.00153
    3     0.04209     0.02040     2.86052

 writing wavefunctions

 total charge

[...]

 magnetization (x)

# of ion       s       p       d       tot
    1        0.000  -0.004   0.000  -0.004
    2        0.000  -0.004   0.000  -0.004
    3        0.000  -0.004   0.000  -0.004
    4        0.000  -0.004   0.000  -0.004
    5        0.000   0.004   0.000   0.004
    6        0.000   0.004   0.000   0.004
    7        0.000   0.004   0.000   0.004
    8        0.000   0.004   0.000   0.004
    9       -0.000   0.000   0.000   0.000
   10       -0.000   0.000   0.000   0.000
   11       -0.000   0.000   0.000   0.000
   12       -0.000   0.000   0.000   0.000
   13       -0.000   0.000   0.000   0.000
   14       -0.000   0.000   0.000   0.000
   15       -0.000   0.000   0.000   0.000
   16       -0.000   0.000   0.000   0.000
   17        0.000   0.004   0.000   0.004
   18        0.000   0.004   0.000   0.004
   19        0.000   0.004   0.000   0.004
   20        0.000   0.004   0.000   0.004
   21        0.000  -0.004   0.000  -0.004
   22        0.000  -0.004   0.000  -0.004
   23        0.000  -0.004   0.000  -0.004
   24        0.000  -0.004   0.000  -0.004
   25       -0.000   0.000   0.000   0.000
   26       -0.000   0.000   0.000   0.000
   27       -0.000   0.000   0.000   0.000
   28       -0.000   0.000   0.000   0.000
   29       -0.000   0.000   0.000   0.000
   30       -0.000   0.000   0.000   0.000
   31       -0.000   0.000   0.000   0.000
   32       -0.000   0.000   0.000   0.000
   33        0.000   0.001  -0.001   0.000
   34        0.000   0.001  -0.001   0.000
   35        0.000   0.001  -0.001   0.000
   36        0.000   0.001  -0.001   0.000
   37       -0.000  -0.001   0.001   0.000
   38       -0.000  -0.001   0.001   0.000
   39       -0.000  -0.001   0.001   0.000
   40       -0.000  -0.001   0.001   0.000
   41        0.000   0.001  -0.001   0.000
   42        0.000   0.001  -0.001   0.000
   43        0.000   0.001  -0.001   0.000
   44        0.000   0.001  -0.001   0.000
   45       -0.000  -0.001   0.001   0.000
   46       -0.000  -0.001   0.001   0.000
   47       -0.000  -0.001   0.001   0.000
   48       -0.000  -0.001   0.001   0.000
   49        0.020   0.054   3.671   3.744
   50        0.020   0.054   3.671   3.744
   51        0.020   0.054   3.671   3.744
   52        0.020   0.054   3.671   3.744
   53       -0.020  -0.054  -3.671  -3.744
   54       -0.020  -0.054  -3.671  -3.744
   55       -0.020  -0.054  -3.671  -3.744
   56       -0.020  -0.054  -3.671  -3.744
   57        0.020   0.054   3.671   3.744
   58        0.020   0.054   3.671   3.744
   59        0.020   0.054   3.671   3.744
   60        0.020   0.054   3.671   3.744
   61       -0.020  -0.054  -3.671  -3.745
   62       -0.020  -0.054  -3.671  -3.744
   63       -0.020  -0.054  -3.671  -3.745
   64       -0.020  -0.054  -3.671  -3.744
tot         -0.000   0.000   0.000   0.000

 BZINTS: Fermi energy:  5.006930;688.000000 electrons
         Band energy:***********;  BLOECHL correction:  0.000000