 vasp.5.4.4.18Apr17-6-g9f103f2a35 (build Oct 30 2023 17:30:16) complex

 executed on             LinuxIFC date 2024.06.30  18:50:52

 INCAR:
 POTCAR:    PAW_PBE S 06Sep2000
 POTCAR:     PAW_PBE Cu_pv 06Sep2000
 POTCAR:     PAW_PBE Fe_pv 02Aug2007

   TITEL  = PAW_PBE S 06Sep2000
   POMASS =   32.066; ZVAL   =    6.000    mass and valenz
   ENMAX  =  258.689; ENMIN  =  194.016 eV

   TITEL  = PAW_PBE Cu_pv 06Sep2000
   POMASS =   63.546; ZVAL   =   17.000    mass and valenz
   ENMAX  =  368.648; ENMIN  =  276.486 eV

   TITEL  = PAW_PBE Fe_pv 02Aug2007
   POMASS =   55.847; ZVAL   =   14.000    mass and valenz
   ENMAX  =  293.238; ENMIN  =  219.928 eV

  PAW_PBE S 06Sep2000                   :
   PAW_PBE Cu_pv 06Sep2000              :
   PAW_PBE Fe_pv 02Aug2007              :

 POSCAR: Fe16 Cu16 S32
  positions in direct lattice
 exchange correlation table for  LEXCH =       14
   RHO(1)=    0.500       N(1)  =     2000
   RHO(2)=  100.500       N(2)  =     4000

 ion  position               nearest neighbor table
   1  0.126  0.119  0.126-  41 2.26  61 2.26  37 2.27  49 2.30
   2  0.626  0.119  0.126-  42 2.26  62 2.26  38 2.27  50 2.30
   3  0.126  0.619  0.126-  43 2.26  63 2.26  39 2.27  51 2.30
   4  0.626  0.619  0.126-  44 2.26  64 2.26  40 2.27  52 2.30
   5  0.374  0.369  0.124-  39 2.26  52 2.26  41 2.27  62 2.30
   6  0.874  0.369  0.124-  40 2.26  51 2.26  42 2.27  61 2.30
   7  0.374  0.869  0.124-  37 2.26  50 2.26  43 2.27  64 2.30
   8  0.874  0.869  0.124-  38 2.26  49 2.26  44 2.27  63 2.30
   9  0.125  0.370  0.875-  41 2.27  45 2.27  51 2.27  55 2.27
  10  0.625  0.370  0.875-  42 2.27  46 2.27  52 2.27  56 2.27
  11  0.125  0.870  0.875-  43 2.27  47 2.27  49 2.27  53 2.27
  12  0.625  0.870  0.875-  44 2.27  48 2.27  50 2.27  54 2.27
  13  0.375  0.122  0.875-  41 2.26  46 2.26  50 2.29  53 2.29
  14  0.875  0.122  0.875-  42 2.26  45 2.26  49 2.29  54 2.29
  15  0.375  0.622  0.875-  43 2.26  48 2.26  52 2.29  55 2.29
  16  0.875  0.622  0.875-  44 2.26  47 2.26  51 2.29  56 2.29
  17  0.124  0.119  0.624-  45 2.26  57 2.26  33 2.27  53 2.30
  18  0.624  0.119  0.624-  46 2.26  58 2.26  34 2.27  54 2.30
  19  0.124  0.619  0.624-  47 2.26  59 2.26  35 2.27  55 2.30
  20  0.624  0.619  0.624-  48 2.26  60 2.26  36 2.27  56 2.30
  21  0.376  0.369  0.626-  36 2.26  55 2.26  46 2.27  57 2.30
  22  0.876  0.369  0.626-  35 2.26  56 2.26  45 2.27  58 2.30
  23  0.376  0.869  0.626-  34 2.26  53 2.26  48 2.27  59 2.30
  24  0.876  0.869  0.626-  33 2.26  54 2.26  47 2.27  60 2.30
  25  0.375  0.120  0.375-  34 2.27  37 2.27  57 2.27  62 2.27
  26  0.875  0.120  0.375-  33 2.27  38 2.27  58 2.27  61 2.27
  27  0.375  0.620  0.375-  36 2.27  39 2.27  59 2.27  64 2.27
  28  0.875  0.620  0.375-  35 2.27  40 2.27  60 2.27  63 2.27
  29  0.125  0.372  0.375-  35 2.26  39 2.26  57 2.29  61 2.29
  30  0.625  0.372  0.375-  36 2.26  40 2.26  58 2.29  62 2.29
  31  0.125  0.872  0.375-  33 2.26  37 2.26  59 2.29  63 2.29
  32  0.625  0.872  0.375-  34 2.26  38 2.26  60 2.29  64 2.29
  33  0.998  0.005  0.500-  24 2.26  31 2.26  26 2.27  17 2.27
  34  0.498  0.005  0.500-  23 2.26  32 2.26  25 2.27  18 2.27
  35  0.998  0.505  0.500-  22 2.26  29 2.26  28 2.27  19 2.27
  36  0.498  0.505  0.500-  21 2.26  30 2.26  27 2.27  20 2.27
  37  0.252  0.005  0.250-   7 2.26  31 2.26  25 2.27   1 2.27
  38  0.752  0.005  0.250-   8 2.26  32 2.26  26 2.27   2 2.27
  39  0.252  0.505  0.250-   5 2.26  29 2.26  27 2.27   3 2.27
  40  0.752  0.505  0.250-   6 2.26  30 2.26  28 2.27   4 2.27
  41  0.248  0.255  1.000-   1 2.26  13 2.26   9 2.27   5 2.27
  42  0.748  0.255  1.000-   2 2.26  14 2.26  10 2.27   6 2.27
  43  0.248  0.755  1.000-   3 2.26  15 2.26  11 2.27   7 2.27
  44  0.748  0.755  1.000-   4 2.26  16 2.26  12 2.27   8 2.27
  45  0.002  0.255  0.750-  17 2.26  14 2.26   9 2.27  22 2.27
  46  0.502  0.255  0.750-  18 2.26  13 2.26  10 2.27  21 2.27
  47  0.002  0.755  0.750-  19 2.26  16 2.26  11 2.27  24 2.27
  48  0.502  0.755  0.750-  20 2.26  15 2.26  12 2.27  23 2.27
  49  0.999  0.005  0.001-   8 2.26  11 2.27  14 2.29   1 2.30
  50  0.499  0.005  0.001-   7 2.26  12 2.27  13 2.29   2 2.30
  51  0.999  0.505  0.001-   6 2.26   9 2.27  16 2.29   3 2.30
  52  0.499  0.505  0.001-   5 2.26  10 2.27  15 2.29   4 2.30
  53  0.251  0.005  0.749-  23 2.26  11 2.27  13 2.29  17 2.30
  54  0.751  0.005  0.749-  24 2.26  12 2.27  14 2.29  18 2.30
  55  0.251  0.505  0.749-  21 2.26   9 2.27  15 2.29  19 2.30
  56  0.751  0.505  0.749-  22 2.26  10 2.27  16 2.29  20 2.30
  57  0.249  0.255  0.501-  17 2.26  25 2.27  29 2.29  21 2.30
  58  0.749  0.255  0.501-  18 2.26  26 2.27  30 2.29  22 2.30
  59  0.249  0.755  0.501-  19 2.26  27 2.27  31 2.29  23 2.30
  60  0.749  0.755  0.501-  20 2.26  28 2.27  32 2.29  24 2.30
  61  0.001  0.255  0.249-   1 2.26  26 2.27  29 2.29   6 2.30
  62  0.501  0.255  0.249-   2 2.26  25 2.27  30 2.29   5 2.30
  63  0.001  0.755  0.249-   3 2.26  28 2.27  31 2.29   8 2.30
  64  0.501  0.755  0.249-   4 2.26  27 2.27  32 2.29   7 2.30

  LATTYP: Found a simple monoclinic cell.
 ALAT       =    15.4763743184
 B/A-ratio  =     0.6800644507
 C/A-ratio  =     1.5630821141
 COS(beta)  =    -0.9567064048

  Lattice vectors:

 A1 = ( -10.9933360000,   0.0000000000, -10.8933340000)
 A2 = (   0.0000000000, -10.5249320000,   0.0000000000)
 A3 = (  11.4837120000,   0.0000000000,  21.2913430000)

Analysis of symmetry for initial positions (statically):
 Subroutine PRICEL returns following result:

[...]

   4 primitive cells build up your supercell.

 Routine SETGRP: Setting up the symmetry group for a
 simple monoclinic supercell.

 Subroutine GETGRP returns: Found  2 space group operations
 (whereof  1 operations were pure point group operations)
 out of a pool of  4 trial point group operations.

The static configuration has the point symmetry C_1 .
 The point group associated with its full space group is C_2 .

Analysis of symmetry for dynamics (positions and initial velocities):
 Subroutine PRICEL returns following result:

[...]

The dynamic configuration has the point symmetry C_1 .
 The point group associated with its full space group is C_2 .

Analysis of structural, dynamic, and magnetic symmetry:
 Subroutine PRICEL returns following result:

  LATTYP: Found a simple monoclinic cell.
 ALAT       =    12.0954219443
 B/A-ratio  =     0.4350791584
 C/A-ratio  =     1.8145002141
 COS(beta)  =    -0.9787112951

  Lattice vectors:

 A1 = (  -5.7418560000,   0.0000000000, -10.6456715000)
 A2 = (   0.0000000000,  -5.2624660000,   0.0000000000)
 A3 = (   6.2322320000,   0.0000000000,  21.0436805000)

   4 primitive cells build up your supercell.

 Routine SETGRP: Setting up the symmetry group for a
 simple monoclinic supercell.

 Subroutine GETGRP returns: Found  2 space group operations
 (whereof  1 operations were pure point group operations)
 out of a pool of  4 trial point group operations.

The magnetic configuration has the point symmetry C_1 .
 The point group associated with its full space group is C_2 .

 Subroutine INISYM returns: Found  2 space group operations
 (whereof  1 operations are pure point group operations),
 and found     4 'primitive' translations

 KPOINTS: Automatic mesh

Automatic generation of k-mesh.
Space group operators:
 irot       det(A)        alpha          n_x          n_y          n_z        tau_x        tau_y        tau_z
    1     1.000000     0.000000     1.000000     0.000000     0.000000     0.000000     0.000000     0.000000
    2     1.000000   180.000000     0.000000     1.000000     0.000000    -0.250000     0.000000    -0.250000

 Subroutine IBZKPT returns following result:

 Found      8 irreducible k-points:

 Following reciprocal coordinates:
            Coordinates               Weight
  0.000000  0.000000  0.000000      1.000000
  0.500000  0.000000 -0.000000      1.000000
  0.000000  0.500000  0.000000      1.000000
  0.500000  0.500000 -0.000000      1.000000
  0.000000  0.000000  0.500000      1.000000
  0.500000  0.000000  0.500000      1.000000
  0.000000  0.500000  0.500000      1.000000
  0.500000  0.500000  0.500000      1.000000

 Following cartesian coordinates:
            Coordinates               Weight
  0.000000  0.000000  0.000000      1.000000
  0.047712  0.000000 -0.002250      1.000000
  0.000000  0.047506  0.000000      1.000000
  0.047712  0.047506 -0.002250      1.000000
 -0.002273  0.000000  0.048193      1.000000
  0.045439  0.000000  0.045943      1.000000
 -0.002273  0.047506  0.048193      1.000000
  0.045439  0.047506  0.045943      1.000000

 TETIRR: Found     24 inequivalent tetrahedra from       48

 Subroutine IBZKPT_HF returns following result:

 Found      8 k-points in 1st BZ
 the following      8 k-points will be used (e.g. in the exchange kernel)
 Following reciprocal coordinates:   # in IRBZ
  0.000000  0.000000  0.000000    0.12500000   1 t-inv F
  0.500000  0.000000 -0.000000    0.12500000   2 t-inv F
  0.000000  0.500000  0.000000    0.12500000   3 t-inv F
  0.500000  0.500000 -0.000000    0.12500000   4 t-inv F
  0.000000  0.000000  0.500000    0.12500000   5 t-inv F
  0.500000  0.000000  0.500000    0.12500000   6 t-inv F
  0.000000  0.500000  0.500000    0.12500000   7 t-inv F
  0.500000  0.500000  0.500000    0.12500000   8 t-inv F

 SYSTEM =  CuFeS2
 POSCAR =  Fe16 Cu16 S32

 Startparameter for this run:
   NWRITE =      2    write-flag & timer
   PREC   = accura    normal or accurate (medium, high low for compatibility)
   ISTART =      0    job   : 0-new  1-cont  2-samecut
   ICHARG =      1    charge: 1-file 2-atom 10-const
   ISPIN  =      2    spin polarized calculation?
   LNONCOLLINEAR =      F non collinear calculations
   LSORBIT =      F    spin-orbit coupling
   INIWAV =      1    electr: 0-lowe 1-rand  2-diag
   LASPH  =      F    aspherical Exc in radial PAW
   METAGGA=      F    non-selfconsistent MetaGGA calc.

 Electronic Relaxation 1
   ENCUT  =  700.0 eV  51.45 Ry    7.17 a.u.  22.68 22.71 22.46*2*pi/ulx,y,z
   ENINI  =  700.0     initial cutoff
   ENAUG  =  758.2 eV  augmentation charge cutoff
   NELM   =    500;   NELMIN=  2; NELMDL= -5     # of ELM steps
   EDIFF  = 0.1E-07   stopping-criterion for ELM
   LREAL  =      F    real-space projection
   NLSPLINE    = F    spline interpolate recip. space projectors
   LCOMPAT=      F    compatible to vasp.4.4
   GGA_COMPAT  = T    GGA compatible to vasp.4.4-vasp.4.6
   LMAXPAW     = -100 max onsite density
   LMAXMIX     =    4 max onsite mixed and CHGCAR
   VOSKOWN=      0    Vosko Wilk Nusair interpolation
   ROPT   =    0.00000   0.00000   0.00000
 Ionic relaxation
   EDIFFG = -.1E-04   stopping-criterion for IOM
   NSW    =      0    number of steps for IOM
   NBLOCK =      1;   KBLOCK =      1    inner block; outer block
   IBRION =     -1    ionic relax: 0-MD 1-quasi-New 2-CG
   NFREE  =      0    steps in history (QN), initial steepest desc. (CG)
   ISIF   =      2    stress and relaxation
   IWAVPR =     10    prediction:  0-non 1-charg 2-wave 3-comb
   ISYM   =      2    0-nonsym 1-usesym 2-fastsym
   LCORR  =      T    Harris-Foulkes like correction to forces

[...]
   0.409E+02 0.335E+02 0.256E+01   -.417E+02 -.337E+02 -.259E+01   0.813E+00 0.219E+00 0.322E-01   -.122E-04 -.563E-05 0.366E-04
   -.409E+02 0.335E+02 -.256E+01   0.417E+02 -.337E+02 0.259E+01   -.813E+00 0.219E+00 -.322E-01   0.112E-04 -.358E-04 0.308E-04
   -.409E+02 0.335E+02 -.256E+01   0.417E+02 -.337E+02 0.259E+01   -.813E+00 0.219E+00 -.322E-01   0.112E-04 -.358E-04 0.308E-04
   -.409E+02 0.335E+02 -.256E+01   0.417E+02 -.337E+02 0.259E+01   -.813E+00 0.219E+00 -.322E-01   0.112E-04 -.358E-04 0.308E-04
   -.409E+02 0.335E+02 -.256E+01   0.417E+02 -.337E+02 0.259E+01   -.813E+00 0.219E+00 -.322E-01   0.112E-04 -.358E-04 0.308E-04
   -.942E-08 -.182E+02 -.120E-06   0.127E-12 0.188E+02 0.338E-13   0.343E-24 -.662E+00 -.310E-24   -.121E-07 -.226E-04 0.569E-09
   -.942E-08 -.182E+02 -.120E-06   0.113E-12 0.188E+02 0.195E-13   0.388E-24 -.662E+00 0.207E-24   0.121E-07 -.226E-04 -.582E-09
   -.942E-08 -.182E+02 -.120E-06   0.924E-13 0.188E+02 0.764E-13   -.252E-24 -.662E+00 -.207E-24   -.121E-07 -.226E-04 0.569E-09
   -.942E-08 -.182E+02 -.120E-06   0.121E-12 0.188E+02 0.213E-13   -.110E-24 -.662E+00 -.207E-24   0.121E-07 -.226E-04 -.582E-09
   0.629E-08 0.669E+02 -.122E-06   -.817E-13 -.679E+02 0.480E-13   0.123E-24 0.104E+01 0.207E-24   -.223E-08 -.213E-04 -.368E-08
   0.629E-08 0.669E+02 -.122E-06   -.444E-13 -.679E+02 0.515E-13   -.258E-24 0.104E+01 -.103E-24   0.212E-08 -.213E-04 0.371E-08
   0.629E-08 0.669E+02 -.122E-06   -.497E-13 -.679E+02 0.462E-13   -.213E-24 0.104E+01 -.414E-24   -.223E-08 -.212E-04 -.368E-08
   0.629E-08 0.669E+02 -.122E-06   -.551E-13 -.679E+02 -.107E-13   0.342E-24 0.104E+01 0.207E-24   0.212E-08 -.212E-04 0.371E-08
   -.409E+02 0.335E+02 -.256E+01   0.417E+02 -.337E+02 0.259E+01   -.813E+00 0.219E+00 -.322E-01   0.122E-04 -.566E-05 -.365E-04
   -.409E+02 0.335E+02 -.256E+01   0.417E+02 -.337E+02 0.259E+01   -.813E+00 0.219E+00 -.322E-01   0.123E-04 -.566E-05 -.366E-04
   -.409E+02 0.335E+02 -.256E+01   0.417E+02 -.337E+02 0.259E+01   -.813E+00 0.219E+00 -.322E-01   0.122E-04 -.563E-05 -.365E-04
   -.409E+02 0.335E+02 -.256E+01   0.417E+02 -.337E+02 0.259E+01   -.813E+00 0.219E+00 -.322E-01   0.123E-04 -.563E-05 -.366E-04
   0.409E+02 0.335E+02 0.256E+01   -.417E+02 -.337E+02 -.259E+01   0.813E+00 0.219E+00 0.322E-01   -.112E-04 -.358E-04 -.308E-04
   0.409E+02 0.335E+02 0.256E+01   -.417E+02 -.337E+02 -.259E+01   0.813E+00 0.219E+00 0.322E-01   -.112E-04 -.358E-04 -.308E-04
   0.409E+02 0.335E+02 0.256E+01   -.417E+02 -.337E+02 -.259E+01   0.813E+00 0.219E+00 0.322E-01   -.112E-04 -.358E-04 -.308E-04
   0.409E+02 0.335E+02 0.256E+01   -.417E+02 -.337E+02 -.259E+01   0.813E+00 0.219E+00 0.322E-01   -.112E-04 -.358E-04 -.308E-04
   -.942E-08 -.182E+02 -.120E-06   0.121E-12 0.188E+02 0.746E-13   -.439E-24 -.662E+00 0.000E+00   0.129E-08 0.113E-04 0.374E-08
   -.942E-08 -.182E+02 -.120E-06   0.108E-12 0.188E+02 0.799E-13   -.969E-26 -.662E+00 0.000E+00   -.141E-08 0.113E-04 -.372E-08
   -.942E-08 -.182E+02 -.120E-06   0.711E-13 0.188E+02 0.000E+00   0.372E-24 -.662E+00 0.000E+00   0.129E-08 0.114E-04 0.374E-08
   -.942E-08 -.182E+02 -.120E-06   0.128E-12 0.188E+02 0.355E-13   0.241E-24 -.662E+00 -.129E-25   -.141E-08 0.114E-04 -.372E-08
   0.629E-08 0.669E+02 -.122E-06   -.123E-12 -.679E+02 -.222E-13   0.291E-25 0.104E+01 -.310E-24   -.121E-07 -.438E-04 0.540E-09
   0.629E-08 0.669E+02 -.122E-06   -.103E-12 -.679E+02 0.711E-14   -.711E-25 0.104E+01 -.207E-24   0.121E-07 -.438E-04 -.554E-09
   0.629E-08 0.669E+02 -.122E-06   -.135E-12 -.679E+02 -.284E-13   -.168E-24 0.104E+01 0.000E+00   -.121E-07 -.438E-04 0.540E-09
   0.629E-08 0.669E+02 -.122E-06   -.853E-13 -.679E+02 -.284E-13   -.969E-25 0.104E+01 0.207E-24   0.121E-07 -.438E-04 -.554E-09
   0.591E+01 -.309E+02 0.251E+01   -.584E+01 0.297E+02 -.256E+01   -.617E-01 0.124E+01 0.515E-01   0.761E-05 0.238E-04 -.347E-04
   0.591E+01 -.309E+02 0.251E+01   -.584E+01 0.297E+02 -.256E+01   -.617E-01 0.124E+01 0.515E-01   0.766E-05 0.238E-04 -.347E-04
   0.591E+01 -.309E+02 0.251E+01   -.584E+01 0.297E+02 -.256E+01   -.617E-01 0.124E+01 0.515E-01   0.762E-05 0.238E-04 -.347E-04
   0.591E+01 -.309E+02 0.251E+01   -.584E+01 0.297E+02 -.256E+01   -.617E-01 0.124E+01 0.515E-01   0.766E-05 0.238E-04 -.347E-04
   -.591E+01 -.309E+02 -.251E+01   0.584E+01 0.297E+02 0.256E+01   0.617E-01 0.124E+01 -.515E-01   -.767E-05 0.238E-04 0.347E-04
   -.591E+01 -.309E+02 -.251E+01   0.584E+01 0.297E+02 0.256E+01   0.617E-01 0.124E+01 -.515E-01   -.761E-05 0.238E-04 0.347E-04
   -.591E+01 -.309E+02 -.251E+01   0.584E+01 0.297E+02 0.256E+01   0.617E-01 0.124E+01 -.515E-01   -.767E-05 0.238E-04 0.347E-04
   -.591E+01 -.309E+02 -.251E+01   0.584E+01 0.297E+02 0.256E+01   0.617E-01 0.124E+01 -.515E-01   -.761E-05 0.238E-04 0.347E-04
   0.591E+01 -.309E+02 0.251E+01   -.584E+01 0.297E+02 -.256E+01   -.617E-01 0.124E+01 0.515E-01   -.438E-05 0.392E-04 0.448E-04
   0.591E+01 -.309E+02 0.251E+01   -.584E+01 0.297E+02 -.256E+01   -.617E-01 0.124E+01 0.515E-01   -.430E-05 0.392E-04 0.449E-04
   0.591E+01 -.309E+02 0.251E+01   -.584E+01 0.297E+02 -.256E+01   -.617E-01 0.124E+01 0.515E-01   -.438E-05 0.392E-04 0.448E-04
   0.591E+01 -.309E+02 0.251E+01   -.584E+01 0.297E+02 -.256E+01   -.617E-01 0.124E+01 0.515E-01   -.431E-05 0.392E-04 0.448E-04
   -.591E+01 -.309E+02 -.251E+01   0.584E+01 0.297E+02 0.256E+01   0.617E-01 0.124E+01 -.515E-01   0.432E-05 0.392E-04 -.448E-04
   -.591E+01 -.309E+02 -.251E+01   0.584E+01 0.297E+02 0.256E+01   0.617E-01 0.124E+01 -.515E-01   0.436E-05 0.392E-04 -.449E-04
   -.591E+01 -.309E+02 -.251E+01   0.584E+01 0.297E+02 0.256E+01   0.617E-01 0.124E+01 -.515E-01   0.433E-05 0.392E-04 -.448E-04
   -.591E+01 -.309E+02 -.251E+01   0.584E+01 0.297E+02 0.256E+01   0.617E-01 0.124E+01 -.515E-01   0.436E-05 0.392E-04 -.449E-04
   -.841E+01 -.302E+02 0.349E+01   0.826E+01 0.286E+02 -.357E+01   0.154E+00 0.162E+01 0.787E-01   0.742E-05 0.898E-05 0.310E-04
   -.841E+01 -.302E+02 0.349E+01   0.826E+01 0.286E+02 -.357E+01   0.154E+00 0.162E+01 0.787E-01   0.747E-05 0.898E-05 0.310E-04
   -.841E+01 -.302E+02 0.349E+01   0.826E+01 0.286E+02 -.357E+01   0.154E+00 0.162E+01 0.787E-01   0.742E-05 0.903E-05 0.310E-04
   -.841E+01 -.302E+02 0.349E+01   0.826E+01 0.286E+02 -.357E+01   0.154E+00 0.162E+01 0.787E-01   0.747E-05 0.903E-05 0.310E-04
   0.841E+01 -.302E+02 -.349E+01   -.826E+01 0.286E+02 0.357E+01   -.154E+00 0.162E+01 -.787E-01   -.746E-05 0.898E-05 -.310E-04
   0.841E+01 -.302E+02 -.349E+01   -.826E+01 0.286E+02 0.357E+01   -.154E+00 0.162E+01 -.787E-01   -.743E-05 0.898E-05 -.310E-04
   0.841E+01 -.302E+02 -.349E+01   -.826E+01 0.286E+02 0.357E+01   -.154E+00 0.162E+01 -.787E-01   -.746E-05 0.903E-05 -.310E-04
   0.841E+01 -.302E+02 -.349E+01   -.826E+01 0.286E+02 0.357E+01   -.154E+00 0.162E+01 -.787E-01   -.743E-05 0.903E-05 -.310E-04
   -.841E+01 -.302E+02 0.349E+01   0.826E+01 0.286E+02 -.357E+01   0.154E+00 0.162E+01 0.787E-01   0.182E-04 0.705E-05 -.312E-04
   -.841E+01 -.302E+02 0.349E+01   0.826E+01 0.286E+02 -.357E+01   0.154E+00 0.162E+01 0.787E-01   0.182E-04 0.704E-05 -.312E-04
   -.841E+01 -.302E+02 0.349E+01   0.826E+01 0.286E+02 -.357E+01   0.154E+00 0.162E+01 0.787E-01   0.182E-04 0.708E-05 -.312E-04
   -.841E+01 -.302E+02 0.349E+01   0.826E+01 0.286E+02 -.357E+01   0.154E+00 0.162E+01 0.787E-01   0.182E-04 0.708E-05 -.312E-04
   0.841E+01 -.302E+02 -.349E+01   -.826E+01 0.286E+02 0.357E+01   -.154E+00 0.162E+01 -.787E-01   -.182E-04 0.705E-05 0.312E-04
   0.841E+01 -.302E+02 -.349E+01   -.826E+01 0.286E+02 0.357E+01   -.154E+00 0.162E+01 -.787E-01   -.181E-04 0.704E-05 0.312E-04
   0.841E+01 -.302E+02 -.349E+01   -.826E+01 0.286E+02 0.357E+01   -.154E+00 0.162E+01 -.787E-01   -.182E-04 0.708E-05 0.312E-04
   0.841E+01 -.302E+02 -.349E+01   -.826E+01 0.286E+02 0.357E+01   -.154E+00 0.162E+01 -.787E-01   -.181E-04 0.708E-05 0.312E-04
   -.166E-05 -.522E+02 -.748E-04   -.181E-12 0.430E-12 0.959E-12   0.000E+00 0.523E+02 0.139E-16   -.441E-10 -.393E-05 -.735E-10

 POSITION                                       TOTAL-FORCE (eV/Angst)
      1.38911      1.25220      1.37177        -0.000054     -0.003343      0.000674
      6.64059      1.25220      1.61943        -0.000054     -0.003343      0.000674
      1.38911      6.51467      1.37177        -0.000054     -0.003343      0.000674
      6.64059      6.51467      1.61943        -0.000054     -0.003343      0.000674
      3.98497      3.88344      1.47539         0.000054     -0.003342     -0.000678
      9.23645      3.88344      1.72306         0.000054     -0.003342     -0.000678
      3.98497      9.14590      1.47539         0.000054     -0.003342     -0.000678
      9.23645      9.14590      1.72306         0.000054     -0.003342     -0.000678
      1.74195      3.89681      9.16017         0.000000     -0.002581      0.000000
      6.99343      3.89681      9.40784        -0.000000     -0.002581      0.000000
      1.74195      9.15928      9.16017        -0.000000     -0.002581     -0.000000
      6.99343      9.15928      9.40784        -0.000000     -0.002581      0.000000
      4.36769      1.28344      9.28400         0.000000     -0.001118     -0.000000
      9.61917      1.28344      9.53167        -0.000000     -0.001118     -0.000000
      4.36769      6.54591      9.28400        -0.000000     -0.001118     -0.000000
      9.61917      6.54591      9.53167        -0.000000     -0.001118     -0.000000
      1.60442      1.25220      6.55057         0.000054     -0.003343     -0.000674
      6.85590      1.25220      6.79823         0.000054     -0.003343     -0.000674
      1.60442      6.51467      6.55057         0.000054     -0.003343     -0.000674
      6.85590      6.51467      6.79823         0.000054     -0.003343     -0.000674
      4.26003      3.88344      6.69461        -0.000054     -0.003342      0.000678
      9.51151      3.88344      6.94227        -0.000054     -0.003342      0.000678
      4.26003      9.14590      6.69461        -0.000054     -0.003342      0.000678
      9.51151      9.14590      6.94227        -0.000054     -0.003342      0.000678
      4.12250      1.26558      4.08500        -0.000000     -0.002585     -0.000000
      9.37398      1.26558      4.33266        -0.000000     -0.002585     -0.000000
      4.12250      6.52805      4.08500         0.000000     -0.002585      0.000000
      9.37398      6.52805      4.33266        -0.000000     -0.002585      0.000000
      1.49676      3.91467      3.96117         0.000000     -0.001123     -0.000000
      6.74824      3.91467      4.20883        -0.000000     -0.001123     -0.000000
      1.49676      9.17714      3.96117        -0.000000     -0.001123      0.000000
      6.74824      9.17714      4.20883         0.000000     -0.001123      0.000000
     10.72610      0.05318      5.69324         0.000503      0.002101     -0.001393
      5.47462      0.05318      5.44558         0.000503      0.002101     -0.001393
     10.72610      5.31565      5.69324         0.000503      0.002101     -0.001393
      5.47462      5.31565      5.44558         0.000503      0.002101     -0.001393
      2.77038      0.05318      2.72443        -0.000503      0.002101      0.001393
      8.02186      0.05318      2.97209        -0.000503      0.002101      0.001393
      2.77038      5.31565      2.72443        -0.000503      0.002101      0.001393
      8.02186      5.31565      2.97209        -0.000503      0.002101      0.001393
      3.09407      2.68442     10.52075         0.000505      0.002100     -0.001393
      8.34555      2.68442     10.76841         0.000505      0.002100     -0.001393
      3.09407      7.94688     10.52075         0.000505      0.002100     -0.001393
      8.34555      7.94688     10.76841         0.000505      0.002100     -0.001393
      0.38983      2.68442      7.79960        -0.000505      0.002100      0.001393
      5.64131      2.68442      8.04726        -0.000505      0.002100      0.001393
      0.38983      7.94688      7.79960        -0.000505      0.002100      0.001393
      5.64131      7.94688      8.04726        -0.000505      0.002100      0.001393
     10.49078      0.05134      0.50098         0.001068      0.003094     -0.003908
      5.23930      0.05134      0.25331         0.001068      0.003094     -0.003908
     10.49078      5.31381      0.50098         0.001068      0.003094     -0.003908
      5.23930      5.31381      0.25331         0.001068      0.003094     -0.003908
      3.00571      0.05134      7.91669        -0.001068      0.003094      0.003908
      8.25719      0.05134      8.16435        -0.001068      0.003094      0.003908
      3.00571      5.31381      7.91669        -0.001068      0.003094      0.003908
      8.25719      5.31381      8.16435        -0.001068      0.003094      0.003908
      2.85874      2.68257      5.32849         0.001067      0.003093     -0.003908
      8.11022      2.68257      5.57615         0.001067      0.003093     -0.003908
      2.85874      7.94504      5.32849         0.001067      0.003093     -0.003908
      8.11022      7.94504      5.57615         0.001067      0.003093     -0.003908
      0.13478      2.68257      2.59385        -0.001067      0.003093      0.003908
      5.38626      2.68257      2.84151        -0.001067      0.003093      0.003908
      0.13478      7.94504      2.59385        -0.001067      0.003093      0.003908
      5.38626      7.94504      2.84151        -0.001067      0.003093      0.003908
    total drift:                               -0.000002      0.004689     -0.000075

  FREE ENERGIE OF THE ION-ELECTRON SYSTEM (eV)
  free  energy   TOTEN  =      -327.17071624 eV

  energy  without entropy=     -327.17071624  energy(sigma->0) =     -327.17071624

 writing wavefunctions

 total charge

[...]

 magnetization (x)

# of ion       s       p       d       tot
    1       -0.000  -0.023   0.000  -0.023
    2       -0.000  -0.023   0.000  -0.023
    3       -0.000  -0.023   0.000  -0.023
    4       -0.000  -0.023   0.000  -0.023
    5        0.000   0.023   0.000   0.023
    6        0.000   0.023   0.000   0.023
    7        0.000   0.023   0.000   0.023
    8        0.000   0.023   0.000   0.023
    9        0.000  -0.000   0.000  -0.000
   10        0.000   0.000   0.000   0.000
   11        0.000  -0.000   0.000  -0.000
   12        0.000   0.000   0.000   0.000
   13       -0.000   0.000   0.000   0.000
   14       -0.000  -0.000   0.000  -0.000
   15       -0.000   0.000   0.000   0.000
   16        0.000  -0.000   0.000  -0.000
   17        0.000   0.023   0.000   0.023
   18        0.000   0.023   0.000   0.023
   19        0.000   0.023   0.000   0.023
   20        0.000   0.023   0.000   0.023
   21       -0.000  -0.023   0.000  -0.023
   22       -0.000  -0.023   0.000  -0.023
   23       -0.000  -0.023   0.000  -0.023
   24       -0.000  -0.023   0.000  -0.023
   25       -0.000  -0.000   0.000  -0.000
   26        0.000   0.000   0.000   0.000
   27        0.000  -0.000   0.000  -0.000
   28        0.000  -0.000   0.000   0.000
   29       -0.000   0.000   0.000   0.000
   30       -0.000  -0.000   0.000  -0.000
   31       -0.000   0.000   0.000   0.000
   32        0.000  -0.000   0.000  -0.000
   33        0.000   0.001  -0.003  -0.002
   34        0.000   0.001  -0.003  -0.002
   35        0.000   0.001  -0.003  -0.002
   36        0.000   0.001  -0.003  -0.002
   37       -0.000  -0.001   0.003   0.002
   38       -0.000  -0.001   0.003   0.002
   39       -0.000  -0.001   0.003   0.002
   40       -0.000  -0.001   0.003   0.002
   41        0.000   0.001  -0.003  -0.002
   42        0.000   0.001  -0.003  -0.002
   43        0.000   0.001  -0.003  -0.002
   44        0.000   0.001  -0.003  -0.002
   45       -0.000  -0.001   0.003   0.002
   46       -0.000  -0.001   0.003   0.002
   47       -0.000  -0.001   0.003   0.002
   48       -0.000  -0.001   0.003   0.002
   49        0.020   0.054   3.666   3.740
   50        0.020   0.054   3.666   3.740
   51        0.020   0.054   3.666   3.740
   52        0.020   0.054   3.666   3.740
   53       -0.020  -0.054  -3.666  -3.740
   54       -0.020  -0.054  -3.666  -3.740
   55       -0.020  -0.054  -3.666  -3.740
   56       -0.020  -0.054  -3.666  -3.740
   57        0.020   0.054   3.666   3.740
   58        0.020   0.054   3.666   3.740
   59        0.020   0.054   3.666   3.740
   60        0.020   0.054   3.666   3.740
   61       -0.020  -0.054  -3.666  -3.740
   62       -0.020  -0.054  -3.666  -3.740
   63       -0.020  -0.054  -3.666  -3.740
   64       -0.020  -0.054  -3.666  -3.740
tot         -0.000  -0.000   0.000  -0.000

 BZINTS: Fermi energy:  4.956796;688.000000 electrons
         Band energy:***********;  BLOECHL correction:  0.000000