 vasp.5.4.4.18Apr17-6-g9f103f2a35 (build Oct 30 2023 17:49:44) complex

 executed on             LinuxIFC date 2024.12.11  04:33:37

 INCAR:
 POTCAR:    PAW_PBE S 06Sep2000
 POTCAR:     PAW_PBE Cu_pv 06Sep2000
 POTCAR:     PAW_PBE Fe_pv 02Aug2007
 POTCAR:    PAW_PBE S 06Sep2000
   VRHFIN =S : s2p4

   TITEL  = PAW_PBE S 06Sep2000
   POMASS =   32.066; ZVAL   =    6.000    mass and valenz
   ENMAX  =  258.689; ENMIN  =  194.016 eV

   TITEL  = PAW_PBE Cu_pv 06Sep2000
   POMASS =   63.546; ZVAL   =   17.000    mass and valenz
   ENMAX  =  368.648; ENMIN  =  276.486 eV

   TITEL  = PAW_PBE Fe_pv 02Aug2007
   POMASS =   55.847; ZVAL   =   14.000    mass and valenz
   ENMAX  =  293.238; ENMIN  =  219.928 eV

  PAW_PBE S 06Sep2000                   :
   PAW_PBE Cu_pv 06Sep2000              :
   PAW_PBE Fe_pv 02Aug2007              :

 POSCAR: sm_isp_SD0310437-standardized_unitcell
  positions in direct lattice
  velocities in cartesian coordinates
 exchange correlation table for  LEXCH =       14
   RHO(1)=    0.500       N(1)  =     2000
   RHO(2)=  100.500       N(2)  =     4000

 ion  position               nearest neighbor table
   1  0.252  0.250  0.125-  10 2.26  11 2.26  13 2.27  16 2.27
   2  0.748  0.750  0.125-  10 2.26  11 2.26  13 2.27  16 2.27
   3  0.250  0.747  0.875-  11 2.26  12 2.26  13 2.27  14 2.27
   4  0.750  0.253  0.875-  11 2.26  12 2.26  13 2.27  14 2.27
   5  0.248  0.250  0.625-   9 2.26  12 2.26  14 2.27  15 2.27
   6  0.752  0.750  0.625-   9 2.26  12 2.26  14 2.27  15 2.27
   7  0.750  0.247  0.375-   9 2.26  10 2.26  15 2.27  16 2.27
   8  0.250  0.753  0.375-   9 2.26  10 2.26  15 2.27  16 2.27
   9  0.000  0.000  0.500-   5 2.26   6 2.26   7 2.26   8 2.26
  10  0.500  0.000  0.250-   1 2.26   2 2.26   7 2.26   8 2.26
  11  0.500  0.500  0.000-   1 2.26   2 2.26   4 2.26   3 2.26
  12  0.000  0.500  0.750-   5 2.26   6 2.26   4 2.26   3 2.26
  13  0.000  0.000  0.000-   2 2.27   1 2.27   3 2.27   4 2.27
  14  0.500  0.000  0.750-   6 2.27   5 2.27   3 2.27   4 2.27
  15  0.500  0.500  0.500-   6 2.27   5 2.27   8 2.27   7 2.27
  16  0.000  0.500  0.250-   2 2.27   1 2.27   8 2.27   7 2.27

  LATTYP: Found a simple orthorhombic cell.
 ALAT       =     5.2061977990
 B/A-ratio  =     1.0239434815
 C/A-ratio  =     1.9792277963

  Lattice vectors:

 A1 = (   5.2061977990,   0.0000000000,   0.0000000000)
 A2 = (   0.0000000000,   5.3308522994,   0.0000000000)
 A3 = (   0.0000000000,   0.0000000000,  10.3042513969)

Analysis of symmetry for initial positions (statically):
 Subroutine PRICEL returns following result:

  LATTYP: Found a body centered orthorhombic cell.
 ALAT       =     5.2061977990
 B/A-ratio  =     1.0239434815
 C/A-ratio  =     1.9792277963

[...]

   2 primitive cells build up your supercell.

 Routine SETGRP: Setting up the symmetry group for a
 simple orthorhombic supercell.

 Subroutine GETGRP returns: Found  2 space group operations
 (whereof  2 operations were pure point group operations)
 out of a pool of  8 trial point group operations.

The static configuration has the point symmetry C_2 .

Analysis of symmetry for dynamics (positions and initial velocities):
 Subroutine PRICEL returns following result:

[...]

The dynamic configuration has the point symmetry C_2 .

Analysis of structural, dynamic, and magnetic symmetry:
 Subroutine PRICEL returns following result:

  LATTYP: Found a body centered orthorhombic cell.
 ALAT       =     5.2061977990
 B/A-ratio  =     1.0239434815
 C/A-ratio  =     1.9792277963

  Lattice vectors:

 A1 = (   2.6030988995,  -2.6654261497,   5.1521256984)
 A2 = (  -2.6030988995,   2.6654261497,   5.1521256984)
 A3 = (  -2.6030988995,  -2.6654261497,  -5.1521256984)

   2 primitive cells build up your supercell.

 Routine SETGRP: Setting up the symmetry group for a
 simple orthorhombic supercell.

 Subroutine GETGRP returns: Found  2 space group operations
 (whereof  2 operations were pure point group operations)
 out of a pool of  8 trial point group operations.

The (compounded) configuration has the point symmetry C_2 .

 Subroutine INISYM returns: Found  2 space group operations
 (whereof  2 operations are pure point group operations),
 and found     2 'primitive' translations

 KPOINTS: Automatic mesh

Automatic generation of k-mesh.
Space group operators:
 irot       det(A)        alpha          n_x          n_y          n_z        tau_x        tau_y        tau_z
    1     1.000000     0.000000     1.000000     0.000000     0.000000     0.000000     0.000000     0.000000
    2     1.000000   180.000000     0.000000     0.000000     1.000000     0.000000     0.000000     0.000000

 Subroutine IBZKPT returns following result:

 Found     60 irreducible k-points:

 Following reciprocal coordinates:
            Coordinates               Weight
  0.000000  0.000000  0.000000      1.000000
  0.166667  0.000000  0.000000      2.000000
  0.333333  0.000000  0.000000      2.000000
  0.500000  0.000000  0.000000      1.000000
  0.000000  0.166667  0.000000      2.000000
  0.166667  0.166667  0.000000      2.000000
  0.333333  0.166667  0.000000      2.000000
  0.500000  0.166667  0.000000      2.000000
 -0.333333  0.166667  0.000000      2.000000
 -0.166667  0.166667  0.000000      2.000000
  0.000000  0.333333  0.000000      2.000000
  0.166667  0.333333  0.000000      2.000000
  0.333333  0.333333  0.000000      2.000000
  0.500000  0.333333  0.000000      2.000000
 -0.333333  0.333333  0.000000      2.000000
 -0.166667  0.333333  0.000000      2.000000
  0.000000  0.500000  0.000000      1.000000
  0.166667  0.500000  0.000000      2.000000
  0.333333  0.500000  0.000000      2.000000
  0.500000  0.500000  0.000000      1.000000
  0.000000  0.000000  0.333333      1.000000
  0.166667  0.000000  0.333333      2.000000
  0.333333  0.000000  0.333333      2.000000
  0.500000  0.000000  0.333333      1.000000
  0.000000  0.166667  0.333333      2.000000
  0.166667  0.166667  0.333333      2.000000
  0.333333  0.166667  0.333333      2.000000
  0.500000  0.166667  0.333333      2.000000
 -0.333333  0.166667  0.333333      2.000000
 -0.166667  0.166667  0.333333      2.000000
  0.000000  0.333333  0.333333      2.000000
  0.166667  0.333333  0.333333      2.000000
  0.333333  0.333333  0.333333      2.000000
  0.500000  0.333333  0.333333      2.000000
 -0.333333  0.333333  0.333333      2.000000
 -0.166667  0.333333  0.333333      2.000000
  0.000000  0.500000  0.333333      1.000000
  0.166667  0.500000  0.333333      2.000000
  0.333333  0.500000  0.333333      2.000000
  0.500000  0.500000  0.333333      1.000000
  0.000000  0.000000 -0.333333      1.000000
  0.166667  0.000000 -0.333333      2.000000
  0.333333  0.000000 -0.333333      2.000000
  0.500000  0.000000 -0.333333      1.000000
  0.000000  0.166667 -0.333333      2.000000
  0.166667  0.166667 -0.333333      2.000000
  0.333333  0.166667 -0.333333      2.000000
  0.500000  0.166667 -0.333333      2.000000
 -0.333333  0.166667 -0.333333      2.000000
 -0.166667  0.166667 -0.333333      2.000000
  0.000000  0.333333 -0.333333      2.000000
  0.166667  0.333333 -0.333333      2.000000
  0.333333  0.333333 -0.333333      2.000000
  0.500000  0.333333 -0.333333      2.000000
 -0.333333  0.333333 -0.333333      2.000000
 -0.166667  0.333333 -0.333333      2.000000
  0.000000  0.500000 -0.333333      1.000000
  0.166667  0.500000 -0.333333      2.000000
  0.333333  0.500000 -0.333333      2.000000
  0.500000  0.500000 -0.333333      1.000000

 Following cartesian coordinates:
            Coordinates               Weight
  0.000000  0.000000  0.000000      1.000000
  0.032013  0.000000  0.000000      2.000000
  0.064026  0.000000  0.000000      2.000000
  0.096039  0.000000  0.000000      1.000000
  0.000000  0.031265  0.000000      2.000000
  0.032013  0.031265  0.000000      2.000000
  0.064026  0.031265  0.000000      2.000000
  0.096039  0.031265  0.000000      2.000000
 -0.064026  0.031265  0.000000      2.000000
 -0.032013  0.031265  0.000000      2.000000
  0.000000  0.062529  0.000000      2.000000
  0.032013  0.062529  0.000000      2.000000
  0.064026  0.062529  0.000000      2.000000
  0.096039  0.062529  0.000000      2.000000
 -0.064026  0.062529  0.000000      2.000000
 -0.032013  0.062529  0.000000      2.000000
  0.000000  0.093794  0.000000      1.000000
  0.032013  0.093794  0.000000      2.000000
  0.064026  0.093794  0.000000      2.000000
  0.096039  0.093794  0.000000      1.000000
  0.000000  0.000000  0.032349      1.000000
  0.032013  0.000000  0.032349      2.000000
  0.064026  0.000000  0.032349      2.000000
  0.096039  0.000000  0.032349      1.000000
  0.000000  0.031265  0.032349      2.000000
  0.032013  0.031265  0.032349      2.000000
  0.064026  0.031265  0.032349      2.000000
  0.096039  0.031265  0.032349      2.000000
 -0.064026  0.031265  0.032349      2.000000
 -0.032013  0.031265  0.032349      2.000000
  0.000000  0.062529  0.032349      2.000000
  0.032013  0.062529  0.032349      2.000000
  0.064026  0.062529  0.032349      2.000000
  0.096039  0.062529  0.032349      2.000000
 -0.064026  0.062529  0.032349      2.000000
 -0.032013  0.062529  0.032349      2.000000
  0.000000  0.093794  0.032349      1.000000
  0.032013  0.093794  0.032349      2.000000
  0.064026  0.093794  0.032349      2.000000
  0.096039  0.093794  0.032349      1.000000
  0.000000  0.000000 -0.032349      1.000000
  0.032013  0.000000 -0.032349      2.000000
  0.064026  0.000000 -0.032349      2.000000
  0.096039  0.000000 -0.032349      1.000000
  0.000000  0.031265 -0.032349      2.000000
  0.032013  0.031265 -0.032349      2.000000
  0.064026  0.031265 -0.032349      2.000000
  0.096039  0.031265 -0.032349      2.000000
 -0.064026  0.031265 -0.032349      2.000000
 -0.032013  0.031265 -0.032349      2.000000
  0.000000  0.062529 -0.032349      2.000000
  0.032013  0.062529 -0.032349      2.000000
  0.064026  0.062529 -0.032349      2.000000
  0.096039  0.062529 -0.032349      2.000000
 -0.064026  0.062529 -0.032349      2.000000
 -0.032013  0.062529 -0.032349      2.000000
  0.000000  0.093794 -0.032349      1.000000
  0.032013  0.093794 -0.032349      2.000000
  0.064026  0.093794 -0.032349      2.000000
  0.096039  0.093794 -0.032349      1.000000

 TETIRR: Found    648 inequivalent tetrahedra from      648

 SYSTEM =  CuFeS2
 POSCAR =  sm_isp_SD0310437-standardized_unitcell

 Startparameter for this run:
   NWRITE =      2    write-flag & timer
   PREC   = accura    normal or accurate (medium, high low for compatibility)
   ISTART =      1    job   : 0-new  1-cont  2-samecut
   ICHARG =      1    charge: 1-file 2-atom 10-const
   ISPIN  =      1    spin polarized calculation?
   LNONCOLLINEAR =      T non collinear calculations
   LSORBIT =      F    spin-orbit coupling
   INIWAV =      1    electr: 0-lowe 1-rand  2-diag
   LASPH  =      T    aspherical Exc in radial PAW
   METAGGA=      F    non-selfconsistent MetaGGA calc.

 Electronic Relaxation 1
   ENCUT  =  700.0 eV  51.45 Ry    7.17 a.u.  11.23 11.50 22.23*2*pi/ulx,y,z
   ENINI  =  700.0     initial cutoff
   ENAUG  =  758.2 eV  augmentation charge cutoff
[...]
 Maximum number of real-space cells 3x 3x 2
 Maximum number of reciprocal cells 2x 2x 4

--------------------------------------- Iteration      1(   1)  ---------------------------------------

 BZINTS: Fermi energy:  5.326031;172.000000 electrons
         Band energy:***********;  BLOECHL correction:  0.000000
 BZINTS: Fermi energy:  5.291204;172.000000 electrons
         Band energy:***********;  BLOECHL correction:  0.000000

 eigenvalue-minimisations  :     0
 total energy-change (2. order) : 0.1086830E+03  (-0.7631688E+02)
 number of electron     172.0000013 magnetization       0.0000000      0.0000000      0.0000000
 augmentation part       71.8643269 magnetization       0.0000004      0.0000009      0.0000012

 Free energy of the ion-electron system (eV)
  alpha Z        PSCENC =       592.51573939
  Ewald energy   TEWEN  =    -15648.34197011
  -Hartree energ DENC   =    -10661.34319830
  -exchange      EXHF   =         0.00000000
  -V(xc)+E(xc)   XCENC  =       819.66120300
  PAW double counting   =     56237.24575306   -57173.18555747
  entropy T*S    EENTRO =         0.00000000
  eigenvalues    EBANDS =     -2562.88521352
  atomic energy  EATOM  =     28505.01627691
  free energy    TOTEN  =       108.68303295 eV

  energy without entropy =      108.68303295  energy(sigma->0) =      108.68303295

[...]

 eigenvalue-minimisations  :     0
 total energy-change (2. order) :-0.7506400E+02  (-0.6530861E+02)
 number of electron     172.0000013 magnetization       0.0000000      0.0000000     -0.0000000
 augmentation part       70.3636622 magnetization      -0.0000006     -0.0000002      0.0005534

[...]

 eigenvalue-minimisations  :     0
 total energy-change (2. order) : 0.1387161E-07  (-0.5286246E-07)
 number of electron     172.0000012 magnetization       0.0000000      0.0000000     -0.0000000
 augmentation part       70.5537334 magnetization      -0.0000000     -0.0000000      0.0000089

[...]

--------------------------------------- Iteration      1(  86)  ---------------------------------------

 BZINTS: Fermi energy:  5.003159;172.000000 electrons
         Band energy:***********;  BLOECHL correction:  0.000000
 BZINTS: Fermi energy:  5.003736;172.000000 electrons
         Band energy:***********;  BLOECHL correction:  0.000000

 eigenvalue-minimisations  :     0
 total energy-change (2. order) :-0.9258656E-08  (-0.4191881E-08)
 number of electron     172.0000012 magnetization       0.0000000      0.0000000     -0.0000000
 augmentation part       70.5537332 magnetization      -0.0000000     -0.0000000      0.0000083

 Free energy of the ion-electron system (eV)
  alpha Z        PSCENC =       592.51573939
  Ewald energy   TEWEN  =    -15648.34197011
  -Hartree energ DENC   =    -10719.54800187
  -exchange      EXHF   =         0.00000000
  -V(xc)+E(xc)   XCENC  =       821.83088645
  PAW double counting   =     28127.31499646   -29050.96524212
  entropy T*S    EENTRO =         0.00000000
  eigenvalues    EBANDS =     -2709.87246836
  atomic energy  EATOM  =     28505.01627691
  free energy    TOTEN  =       -82.04978326 eV

  energy without entropy =      -82.04978326  energy(sigma->0) =      -82.04978326

  average scaling for gradient   1.2119

 average (electrostatic) potential at core
  the test charge radii are     0.9698  0.8297  0.9500
  (the norm of the test charge is              1.0000)
       1 -86.5731       2 -86.5731       3 -86.5720       4 -86.5720       5 -86.5731
       6 -86.5731       7 -86.5720       8 -86.5720       9 -80.6622      10 -80.6622
      11 -80.6622      12 -80.6622      13 -80.1375      14 -80.1376      15 -80.1375
      16 -80.1376

 E-fermi :   5.0037     XC(G=0): -10.4957     alpha+bet :-10.6086

 k-point     1 :       0.0000    0.0000    0.0000
  band No.  band energies     occupation
      1     -64.2611      1.00000
      2     -64.2611      1.00000
      3     -64.2611      1.00000
      4     -64.2611      1.00000
      5     -64.2461      1.00000
      6     -64.2461      1.00000
      7     -64.2460      1.00000
      8     -64.2460      1.00000
      9     -64.2416      1.00000
     10     -64.2416      1.00000
     11     -64.2416      1.00000
     12     -64.2416      1.00000
     13     -64.2338      1.00000
     14     -64.2338      1.00000
     15     -64.2336      1.00000
     16     -64.2336      1.00000
     17     -64.2309      1.00000
     18     -64.2309      1.00000
     19     -64.2308      1.00000
     20     -64.2308      1.00000
     21     -64.2240      1.00000
     22     -64.2240      1.00000
     23     -64.2240      1.00000
     24     -64.2240      1.00000
     25     -51.8021      1.00000
     26     -51.8021      1.00000
     27     -51.8020      1.00000
     28     -51.8020      1.00000
     29     -51.7658      1.00000
     30     -51.7658      1.00000
     31     -51.7654      1.00000
     32     -51.7654      1.00000
     33     -51.7299      1.00000
     34     -51.7299      1.00000
     35     -51.7294      1.00000
     36     -51.7294      1.00000
     37     -47.6525      1.00000
     38     -47.6525      1.00000
     39     -47.6525      1.00000
     40     -47.6525      1.00000
     41     -47.6479      1.00000
     42     -47.6478      1.00000
     43     -47.6478      1.00000
     44     -47.6477      1.00000
     45     -47.6309      1.00000
     46     -47.6309      1.00000
     47     -47.6307      1.00000
     48     -47.6307      1.00000
     49      -9.0851      1.00000
     50      -9.0851      1.00000
     51      -8.4584      1.00000
     52      -8.4584      1.00000
     53      -8.4359      1.00000
     54      -8.4359      1.00000
     55      -7.7597      1.00000
     56      -7.7597      1.00000
     57      -7.7306      1.00000
     58      -7.7305      1.00000
     59      -7.7257      1.00000
     60      -7.7257      1.00000
[...]
    194       7.7816      0.00000
    195       8.8027      0.00000
    196       8.8027      0.00000
    197       8.8286      0.00000
    198       8.8287      0.00000
    199       8.9867      0.00000
    200       8.9868      0.00000
    201       9.3805      0.00000
    202       9.3805      0.00000
    203       9.6414      0.00000
    204       9.6414      0.00000
    205      10.1031      0.00000
    206      10.1031      0.00000
    207      10.1700      0.00000
    208      10.1700      0.00000

[...]

 k-point    60 :       0.5000    0.5000   -0.3333
  band No.  band energies     occupation
      1     -64.2611      1.00000
      2     -64.2611      1.00000
      3     -64.2611      1.00000
      4     -64.2611      1.00000
      5     -64.2461      1.00000
      6     -64.2461      1.00000
      7     -64.2460      1.00000
      8     -64.2460      1.00000
      9     -64.2416      1.00000
     10     -64.2416      1.00000
     11     -64.2416      1.00000
     12     -64.2416      1.00000
     13     -64.2338      1.00000
     14     -64.2338      1.00000
     15     -64.2336      1.00000
     16     -64.2336      1.00000
     17     -64.2309      1.00000
     18     -64.2309      1.00000
     19     -64.2308      1.00000
     20     -64.2308      1.00000
     21     -64.2241      1.00000
     22     -64.2241      1.00000
     23     -64.2240      1.00000
     24     -64.2240      1.00000
     25     -51.8021      1.00000
     26     -51.8021      1.00000
     27     -51.8020      1.00000
     28     -51.8020      1.00000
     29     -51.7658      1.00000
     30     -51.7658      1.00000
     31     -51.7654      1.00000
     32     -51.7654      1.00000
     33     -51.7299      1.00000
     34     -51.7299      1.00000
     35     -51.7294      1.00000
     36     -51.7294      1.00000
     37     -47.6525      1.00000
     38     -47.6525      1.00000
     39     -47.6525      1.00000
     40     -47.6525      1.00000
     41     -47.6479      1.00000
     42     -47.6479      1.00000
     43     -47.6478      1.00000
     44     -47.6478      1.00000
     45     -47.6309      1.00000
     46     -47.6309      1.00000
     47     -47.6307      1.00000
     48     -47.6307      1.00000
     49      -8.0950      1.00000
     50      -8.0950      1.00000
     51      -8.0943      1.00000
     52      -8.0942      1.00000
     53      -8.0940      1.00000
     54      -8.0939      1.00000
     55      -8.0907      1.00000
     56      -8.0906      1.00000
     57      -8.0760      1.00000
     58      -8.0760      1.00000
     59      -8.0725      1.00000
     60      -8.0724      1.00000
[...]
    194       9.4637      0.00000
    195       9.4651      0.00000
    196       9.4652      0.00000
    197       9.6764      0.00000
    198       9.6765      0.00000
    199       9.6807      0.00000
    200       9.6807      0.00000
    201      10.1711      0.00000
    202      10.1712      0.00000
    203      10.1712      0.00000
    204      10.1713      0.00000
    205      10.5754      0.00000
    206      10.5755      0.00000
    207      10.5796      0.00000
    208      10.5797      0.00000

 soft charge-density along one line, spin component           1
         0         1         2         3         4         5         6         7         8         9
 total charge-density along one line

[...]

 soft charge-density along one line, spin component           4
         0         1         2         3         4         5         6         7         8         9
 total charge-density along one line

------------------------ aborting loop because EDIFF is reached ----------------------------------------

 total charge

# of ion       s       p       d       tot
    1        1.313   2.413   0.000   3.726
    2        1.313   2.413   0.000   3.726
    3        1.314   2.412   0.000   3.725
    4        1.314   2.412   0.000   3.725
    5        1.313   2.413   0.000   3.726
    6        1.313   2.413   0.000   3.726
    7        1.314   2.412   0.000   3.725
    8        1.314   2.412   0.000   3.725
    9        0.261   6.205   8.916  15.382
   10        0.261   6.205   8.916  15.382
   11        0.261   6.205   8.916  15.382
   12        0.261   6.205   8.916  15.382
   13        0.351   6.354   5.826  12.531
   14        0.351   6.354   5.826  12.531
   15        0.351   6.354   5.826  12.531
   16        0.351   6.354   5.826  12.531
tot         12.959  69.534  58.966 141.459

 magnetization (x)

[...]

 magnetization (y)

[...]

 magnetization (z)

[...]

  FORCE on cell =-STRESS in cart. coord.  units (eV):
  Direction    XX          YY          ZZ          XY          YZ          ZX
  Alpha Z   592.51574   592.51574   592.51574
  Ewald   -5243.64734 -5133.48389 -5271.24745    -0.00000    -0.00000     0.00000
  Hartree  3556.56993  3608.94019  3554.03790     0.00127    -0.00000     0.00000
  E(xc)   -1050.89124 -1050.82564 -1050.88852    -0.00010    -0.00000     0.00000
  Local   -1199.50827 -1361.51315 -1166.25137    -0.01207    -0.00000     0.00000
  n-local   121.87828   123.28149   121.89090     0.01164     0.00066     0.00090
  augment  1181.17147  1181.97373  1178.91704    -0.01176    -0.00000    -0.00000
  Kinetic  2043.39795  2039.10699  2042.39048     0.02007     0.00133     0.00146
  Fock        0.00000     0.00000     0.00000     0.00000     0.00000     0.00000
  Total       1.48652    -0.00455     1.36472     0.00906     0.00000     0.00000
  in kB       8.32812    -0.02546     7.64577     0.05073     0.00000     0.00000

 VOLUME and BASIS-vectors are now :
  energy-cutoff  :      700.00
  volume of cell :      285.98
      direct lattice vectors                 reciprocal lattice vectors
     5.206197799  0.000000000  0.000000000     0.192078757  0.000000000  0.000000000
     0.000000000  5.330852299  0.000000000     0.000000000  0.187587264  0.000000000
     0.000000000  0.000000000 10.304251397     0.000000000  0.000000000  0.097047322

  length of vectors
     5.206197799  5.330852299 10.304251397     0.192078757  0.187587264  0.097047322

 FORCES acting on ions:
    Electron-Ion                     Ewald-Force                    Non-Local-Force
   0.420E+02 -.502E-03 -.838E-03   -.428E+02 0.142E-13 0.568E-13   0.832E+00 0.718E-03 0.826E-03
   -.420E+02 0.502E-03 -.838E-03   0.428E+02 -.142E-13 -.114E-12   -.832E+00 -.718E-03 0.826E-03
   0.570E-03 -.435E+02 -.824E-03   -.160E-13 0.443E+02 -.142E-13   -.712E-03 -.872E+00 0.770E-03
   -.570E-03 0.435E+02 -.824E-03   0.178E-14 -.443E+02 0.142E-13   0.712E-03 0.872E+00 0.770E-03
   -.420E+02 0.502E-03 -.838E-03   0.428E+02 -.622E-14 0.711E-13   -.832E+00 -.718E-03 0.826E-03
   0.420E+02 -.502E-03 -.838E-03   -.428E+02 0.187E-13 0.142E-12   0.832E+00 0.718E-03 0.826E-03
   0.570E-03 -.435E+02 -.824E-03   -.426E-13 0.443E+02 -.284E-13   -.712E-03 -.872E+00 0.770E-03
   -.570E-03 0.435E+02 -.824E-03   0.000E+00 -.443E+02 0.142E-12   0.712E-03 0.872E+00 0.770E-03
   -.815E-12 0.192E-12 -.103E+01   0.111E-04 -.241E-04 0.104E+01   0.000E+00 0.169E-20 -.101E-01
   0.261E-11 0.181E-12 0.103E+01   -.111E-04 -.241E-04 -.104E+01   0.000E+00 0.000E+00 0.846E-02
   0.735E-12 0.109E-10 -.103E+01   -.111E-04 0.241E-04 0.104E+01   0.000E+00 0.847E-21 -.101E-01
   0.997E-12 -.528E-12 0.103E+01   0.111E-04 0.241E-04 -.104E+01   0.000E+00 0.000E+00 0.846E-02
   -.613E-13 0.800E-13 0.260E+01   -.843E-05 0.201E-04 -.260E+01   0.000E+00 0.132E-22 -.467E-02
   0.599E-12 -.480E-13 -.260E+01   0.843E-05 0.201E-04 0.260E+01   0.000E+00 -.424E-21 -.210E-02
   0.582E-12 0.752E-11 0.260E+01   0.843E-05 -.201E-04 -.260E+01   0.000E+00 0.000E+00 -.467E-02
   -.394E-13 0.512E-12 -.260E+01   -.843E-05 -.201E-04 0.260E+01   0.000E+00 -.847E-21 -.210E-02
   0.113E-10 0.188E-10 0.100E-01   0.438E-13 -.225E-13 0.142E-13   0.111E-15 0.111E-15 -.104E-01

 POSITION                                       TOTAL-FORCE (eV/Angst)
      1.31376      1.33271      1.28803        -0.000286      0.000199     -0.000008
      3.89244      3.99814      1.28803         0.000286     -0.000199     -0.000008
      1.30155      3.98477      9.01622        -0.000126      0.000259     -0.000049
      3.90465      1.34608      9.01622         0.000126     -0.000259     -0.000049
      1.28934      1.33271      6.44016         0.000286     -0.000199     -0.000008
      3.91686      3.99814      6.44016        -0.000286      0.000199     -0.000008
      3.90465      1.31934      3.86409        -0.000126      0.000259     -0.000049
      1.30155      4.01151      3.86409         0.000126     -0.000259     -0.000049
      0.00000      0.00000      5.15401         0.000000      0.000000     -0.000068
      2.60310      0.00000      2.57418         0.000000      0.000000      0.000099
      2.60310      2.66543      0.00189         0.000000      0.000000     -0.000068
      0.00000      2.66543      7.72630         0.000000      0.000000      0.000099
      0.00000      0.00000      0.00005         0.000000      0.000000      0.000455
      2.60310      0.00000      7.72813         0.000000      0.000000     -0.000373
      2.60310      2.66543      5.15218         0.000000      0.000000      0.000455
      0.00000      2.66543      2.57601         0.000000      0.000000     -0.000373
    total drift:                                0.000000      0.000000     -0.000351

  FREE ENERGIE OF THE ION-ELECTRON SYSTEM (eV)
  free  energy   TOTEN  =       -82.04978326 eV

  energy  without entropy=      -82.04978326  energy(sigma->0) =      -82.04978326

 writing wavefunctions

 total charge

[...]

 magnetization (x)

[...]

 magnetization (y)

[...]

 magnetization (z)

# of ion       s       p       d       tot
    1       -0.000  -0.000   0.000  -0.000
    2       -0.000  -0.000   0.000  -0.000
    3        0.000   0.000   0.000   0.000
    4        0.000   0.000   0.000   0.000
    5       -0.000  -0.000   0.000  -0.000
    6       -0.000  -0.000   0.000  -0.000
    7        0.000   0.000   0.000   0.000
    8        0.000   0.000   0.000   0.000
    9        0.000   0.001  -0.002  -0.001
   10       -0.000  -0.001   0.002   0.001
   11        0.000   0.001  -0.002  -0.001
   12       -0.000  -0.001   0.002   0.001
   13        0.020   0.054   3.661   3.735
   14       -0.020  -0.054  -3.661  -3.735
   15        0.020   0.054   3.661   3.735
   16       -0.020  -0.054  -3.661  -3.735
tot          0.000   0.000   0.000   0.000

 BZINTS: Fermi energy:  4.966127;172.000000 electrons
         Band energy:***********;  BLOECHL correction:  0.000000
 BZINTS: Fermi energy:  4.966127;172.000000 electrons
         Band energy:***********;  BLOECHL correction:  0.000000
 BZINTS: Fermi energy:  4.966127;172.000000 electrons
         Band energy:***********;  BLOECHL correction:  0.000000
 BZINTS: Fermi energy:  4.966127;172.000000 electrons
         Band energy:***********;  BLOECHL correction:  0.000000