 vasp.5.4.4.18Apr17-6-g9f103f2a35 (build Oct 30 2023 17:30:16) complex

 executed on             LinuxIFC date 2024.06.30  23:21:35

 INCAR:
 POTCAR:    PAW_PBE S 06Sep2000
 POTCAR:     PAW_PBE Cu_pv 06Sep2000
 POTCAR:     PAW_PBE Fe_pv 02Aug2007

   TITEL  = PAW_PBE S 06Sep2000
   POMASS =   32.066; ZVAL   =    6.000    mass and valenz
   ENMAX  =  258.689; ENMIN  =  194.016 eV

   TITEL  = PAW_PBE Cu_pv 06Sep2000
   POMASS =   63.546; ZVAL   =   17.000    mass and valenz
   ENMAX  =  368.648; ENMIN  =  276.486 eV

   TITEL  = PAW_PBE Fe_pv 02Aug2007
   POMASS =   55.847; ZVAL   =   14.000    mass and valenz
   ENMAX  =  293.238; ENMIN  =  219.928 eV

  PAW_PBE S 06Sep2000                   :
   PAW_PBE Cu_pv 06Sep2000              :
   PAW_PBE Fe_pv 02Aug2007              :

 POSCAR: Fe16 Cu16 S32
  positions in direct lattice
 exchange correlation table for  LEXCH =       14
   RHO(1)=    0.500       N(1)  =     2000
   RHO(2)=  100.500       N(2)  =     4000

 ion  position               nearest neighbor table
   1  0.126  0.122  0.125-  41 2.26  37 2.27  61 2.27  49 2.29
   2  0.626  0.122  0.125-  42 2.26  38 2.27  62 2.27  50 2.29
   3  0.126  0.622  0.125-  43 2.26  39 2.27  63 2.27  51 2.29
   4  0.626  0.622  0.125-  44 2.26  40 2.27  64 2.27  52 2.29
   5  0.374  0.372  0.125-  39 2.26  41 2.27  52 2.27  62 2.29
   6  0.874  0.372  0.125-  40 2.26  42 2.27  51 2.27  61 2.29
   7  0.374  0.872  0.125-  37 2.26  43 2.27  50 2.27  64 2.29
   8  0.874  0.872  0.125-  38 2.26  44 2.27  49 2.27  63 2.29
   9  0.125  0.372  0.875-  41 2.26  45 2.26  51 2.27  55 2.27
  10  0.625  0.372  0.875-  42 2.26  46 2.26  52 2.27  56 2.27
  11  0.125  0.872  0.875-  43 2.26  47 2.26  49 2.27  53 2.27
  12  0.625  0.872  0.875-  44 2.26  48 2.26  50 2.27  54 2.27
  13  0.375  0.124  0.875-  41 2.26  46 2.26  50 2.28  53 2.28
  14  0.875  0.124  0.875-  42 2.26  45 2.26  49 2.28  54 2.28
  15  0.375  0.624  0.875-  43 2.26  48 2.26  52 2.28  55 2.28
  16  0.875  0.624  0.875-  44 2.26  47 2.26  51 2.28  56 2.28
  17  0.124  0.122  0.625-  45 2.26  33 2.27  57 2.27  53 2.29
  18  0.624  0.122  0.625-  46 2.26  34 2.27  58 2.27  54 2.29
  19  0.124  0.622  0.625-  47 2.26  35 2.27  59 2.27  55 2.29
  20  0.624  0.622  0.625-  48 2.26  36 2.27  60 2.27  56 2.29
  21  0.376  0.372  0.625-  36 2.26  46 2.27  55 2.27  57 2.29
  22  0.876  0.372  0.625-  35 2.26  45 2.27  56 2.27  58 2.29
  23  0.376  0.872  0.625-  34 2.26  48 2.27  53 2.27  59 2.29
  24  0.876  0.872  0.625-  33 2.26  47 2.27  54 2.27  60 2.29
  25  0.375  0.122  0.375-  34 2.26  37 2.26  57 2.27  62 2.27
  26  0.875  0.122  0.375-  33 2.26  38 2.26  58 2.27  61 2.27
  27  0.375  0.622  0.375-  36 2.26  39 2.26  59 2.27  64 2.27
  28  0.875  0.622  0.375-  35 2.26  40 2.26  60 2.27  63 2.27
  29  0.125  0.374  0.375-  35 2.26  39 2.26  57 2.28  61 2.28
  30  0.625  0.374  0.375-  36 2.26  40 2.26  58 2.28  62 2.28
  31  0.125  0.874  0.375-  33 2.26  37 2.26  59 2.28  63 2.28
  32  0.625  0.874  0.375-  34 2.26  38 2.26  60 2.28  64 2.28
  33  0.999  0.003  0.500-  24 2.26  31 2.26  26 2.26  17 2.27
  34  0.499  0.003  0.500-  23 2.26  32 2.26  25 2.26  18 2.27
  35  0.999  0.503  0.500-  22 2.26  29 2.26  28 2.26  19 2.27
  36  0.499  0.503  0.500-  21 2.26  30 2.26  27 2.26  20 2.27
  37  0.251  0.003  0.250-   7 2.26  31 2.26  25 2.26   1 2.27
  38  0.751  0.003  0.250-   8 2.26  32 2.26  26 2.26   2 2.27
  39  0.251  0.503  0.250-   5 2.26  29 2.26  27 2.26   3 2.27
  40  0.751  0.503  0.250-   6 2.26  30 2.26  28 2.26   4 2.27
  41  0.249  0.253  1.000-   1 2.26  13 2.26   9 2.26   5 2.27
  42  0.749  0.253  1.000-   2 2.26  14 2.26  10 2.26   6 2.27
  43  0.249  0.753  1.000-   3 2.26  15 2.26  11 2.26   7 2.27
  44  0.749  0.753  1.000-   4 2.26  16 2.26  12 2.26   8 2.27
  45  0.001  0.253  0.750-  17 2.26  14 2.26   9 2.26  22 2.27
  46  0.501  0.253  0.750-  18 2.26  13 2.26  10 2.26  21 2.27
  47  0.001  0.753  0.750-  19 2.26  16 2.26  11 2.26  24 2.27
  48  0.501  0.753  0.750-  20 2.26  15 2.26  12 2.26  23 2.27
  49  1.000  0.002  0.000-   8 2.27  11 2.27  14 2.28   1 2.29
  50  0.500  0.002  0.000-   7 2.27  12 2.27  13 2.28   2 2.29
  51  1.000  0.502  0.000-   6 2.27   9 2.27  16 2.28   3 2.29
  52  0.500  0.502  0.000-   5 2.27  10 2.27  15 2.28   4 2.29
  53  0.250  0.002  0.750-  23 2.27  11 2.27  13 2.28  17 2.29
  54  0.750  0.002  0.750-  24 2.27  12 2.27  14 2.28  18 2.29
  55  0.250  0.502  0.750-  21 2.27   9 2.27  15 2.28  19 2.29
  56  0.750  0.502  0.750-  22 2.27  10 2.27  16 2.28  20 2.29
  57  0.250  0.252  0.500-  17 2.27  25 2.27  29 2.28  21 2.29
  58  0.750  0.252  0.500-  18 2.27  26 2.27  30 2.28  22 2.29
  59  0.250  0.752  0.500-  19 2.27  27 2.27  31 2.28  23 2.29
  60  0.750  0.752  0.500-  20 2.27  28 2.27  32 2.28  24 2.29
  61  0.000  0.252  0.250-   1 2.27  26 2.27  29 2.28   6 2.29
  62  0.500  0.252  0.250-   2 2.27  25 2.27  30 2.28   5 2.29
  63  0.000  0.752  0.250-   3 2.27  28 2.27  31 2.28   8 2.29
  64  0.500  0.752  0.250-   4 2.27  27 2.27  32 2.28   7 2.29

  LATTYP: Found a simple monoclinic cell.
 ALAT       =    15.1416951711
 B/A-ratio  =     0.6946718898
 C/A-ratio  =     1.5694334285
 COS(beta)  =    -0.9527034692

  Lattice vectors:

 A1 = ( -10.7579590000,   0.0000000000, -10.6553860000)
 A2 = (   0.0000000000, -10.5185100000,   0.0000000000)
 A3 = (  11.0032310000,   0.0000000000,  21.0630250000)

Analysis of symmetry for initial positions (statically):
 Subroutine PRICEL returns following result:

[...]

   4 primitive cells build up your supercell.

 Routine SETGRP: Setting up the symmetry group for a
 simple monoclinic supercell.

 Subroutine GETGRP returns: Found  2 space group operations
 (whereof  1 operations were pure point group operations)
 out of a pool of  4 trial point group operations.

The static configuration has the point symmetry C_1 .
 The point group associated with its full space group is C_2 .

Analysis of symmetry for dynamics (positions and initial velocities):
 Subroutine PRICEL returns following result:

[...]

The dynamic configuration has the point symmetry C_1 .
 The point group associated with its full space group is C_2 .

Analysis of structural, dynamic, and magnetic symmetry:
 Subroutine PRICEL returns following result:

  LATTYP: Found a simple monoclinic cell.
 ALAT       =    11.8819412828
 B/A-ratio  =     0.4426259039
 C/A-ratio  =     1.8274345522
 COS(beta)  =    -0.9772863703

  Lattice vectors:

 A1 = (  -5.5016155000,   0.0000000000, -10.5315125000)
 A2 = (   0.0000000000,  -5.2592550000,   0.0000000000)
 A3 = (   5.7468875000,   0.0000000000,  20.9391515000)

   4 primitive cells build up your supercell.

 Routine SETGRP: Setting up the symmetry group for a
 simple monoclinic supercell.

 Subroutine GETGRP returns: Found  2 space group operations
 (whereof  1 operations were pure point group operations)
 out of a pool of  4 trial point group operations.

The magnetic configuration has the point symmetry C_1 .
 The point group associated with its full space group is C_2 .

 Subroutine INISYM returns: Found  2 space group operations
 (whereof  1 operations are pure point group operations),
 and found     4 'primitive' translations

 KPOINTS: Automatic mesh

Automatic generation of k-mesh.
Space group operators:
 irot       det(A)        alpha          n_x          n_y          n_z        tau_x        tau_y        tau_z
    1     1.000000     0.000001     1.000000     0.000000     0.000000     0.000000     0.000000     0.000000
    2     1.000000   179.999999     0.000000     1.000000     0.000000    -0.250000     0.000000    -0.250000

 Subroutine IBZKPT returns following result:

 Found      1 irreducible k-points:

 Following reciprocal coordinates:
            Coordinates               Weight
  0.000000  0.000000  0.000000      1.000000

 Following cartesian coordinates:
            Coordinates               Weight
  0.000000  0.000000  0.000000      1.000000

 Subroutine IBZKPT_HF returns following result:

 Found      1 k-points in 1st BZ
 the following      1 k-points will be used (e.g. in the exchange kernel)
 Following reciprocal coordinates:   # in IRBZ
  0.000000  0.000000  0.000000    1.00000000   1 t-inv F

 SYSTEM =  CuFeS2
 POSCAR =  Fe16 Cu16 S32

 Startparameter for this run:
   NWRITE =      2    write-flag & timer
   PREC   = accura    normal or accurate (medium, high low for compatibility)
   ISTART =      1    job   : 0-new  1-cont  2-samecut
   ICHARG =      1    charge: 1-file 2-atom 10-const
   ISPIN  =      2    spin polarized calculation?
   LNONCOLLINEAR =      F non collinear calculations
   LSORBIT =      F    spin-orbit coupling
   INIWAV =      1    electr: 0-lowe 1-rand  2-diag
   LASPH  =      F    aspherical Exc in radial PAW
   METAGGA=      F    non-selfconsistent MetaGGA calc.

 Electronic Relaxation 1
   ENCUT  =  700.0 eV  51.45 Ry    7.17 a.u.  22.69 22.69 22.46*2*pi/ulx,y,z
   ENINI  =  700.0     initial cutoff
   ENAUG  =  758.2 eV  augmentation charge cutoff
   NELM   =    500;   NELMIN=  2; NELMDL=  0     # of ELM steps
   EDIFF  = 0.1E-07   stopping-criterion for ELM
   LREAL  =      F    real-space projection
   NLSPLINE    = F    spline interpolate recip. space projectors
   LCOMPAT=      F    compatible to vasp.4.4
   GGA_COMPAT  = T    GGA compatible to vasp.4.4-vasp.4.6
   LMAXPAW     = -100 max onsite density
   LMAXMIX     =    4 max onsite mixed and CHGCAR
   VOSKOWN=      0    Vosko Wilk Nusair interpolation
   ROPT   =    0.00000   0.00000   0.00000
 Ionic relaxation
   EDIFFG = -.1E-04   stopping-criterion for IOM
   NSW    =      0    number of steps for IOM
   NBLOCK =      1;   KBLOCK =      1    inner block; outer block
   IBRION =     -1    ionic relax: 0-MD 1-quasi-New 2-CG
   NFREE  =      0    steps in history (QN), initial steepest desc. (CG)
   ISIF   =      2    stress and relaxation
   IWAVPR =     10    prediction:  0-non 1-charg 2-wave 3-comb
   ISYM   =      2    0-nonsym 1-usesym 2-fastsym
   LCORR  =      T    Harris-Foulkes like correction to forces

   POTIM  = 0.5000    time-step for ionic-motion
   TEIN   =    0.0    initial temperature
   TEBEG  =    0.0;   TEEND  =   0.0 temperature during run
   SMASS  =  -3.00    Nose mass-parameter (am)
   estimated Nose-frequenzy (Omega)   =  0.10E-29 period in steps =****** mass=  -0.253E-26a.u.
   SCALEE = 1.0000    scale energy and forces
   NPACO  =    256;   APACO  = 16.0  distance and # of slots for P.C.
   PSTRESS=    0.0 pullay stress

  Mass of Ions in am
   POMASS =  32.07 63.55 55.85
  Ionic Valenz
   ZVAL   =   6.00 17.00 14.00
  Atomic Wigner-Seitz radii
  virtual crystal weights
   VCA    =   1.00  1.00  1.00
   NELECT =     688.0000    total number of electrons
   NUPDOWN=      -1.0000    fix difference up-down

 DOS related values:
   EMIN   =  10.00;   EMAX   =-10.00  energy-range for DOS
   EFERMI =   0.00
   ISMEAR =     0;   SIGMA  =   0.03  broadening in eV -4-tet -1-fermi 0-gaus

 Electronic relaxation 2 (details)
   IALGO  =     38    algorithm
   LDIAG  =      T    sub-space diagonalisation (order eigenvalues)
   LSUBROT=      F    optimize rotation matrix (better conditioning)
[...]
   0.418E+02 0.164E+02 0.150E+01   -.427E+02 -.165E+02 -.151E+01   0.919E+00 0.131E+00 0.933E-02   -.472E-04 0.113E-04 -.743E-05
   -.418E+02 0.164E+02 -.150E+01   0.427E+02 -.165E+02 0.151E+01   -.919E+00 0.131E+00 -.930E-02   0.472E-04 -.151E-04 -.839E-05
   -.418E+02 0.164E+02 -.150E+01   0.427E+02 -.165E+02 0.151E+01   -.919E+00 0.131E+00 -.930E-02   0.472E-04 -.151E-04 -.839E-05
   -.418E+02 0.164E+02 -.150E+01   0.427E+02 -.165E+02 0.151E+01   -.919E+00 0.131E+00 -.930E-02   0.472E-04 -.151E-04 -.839E-05
   -.418E+02 0.164E+02 -.150E+01   0.427E+02 -.165E+02 0.151E+01   -.919E+00 0.131E+00 -.930E-02   0.472E-04 -.151E-04 -.839E-05
   0.356E-08 -.296E+02 -.146E-06   -.684E-13 0.304E+02 -.258E-13   0.541E-25 -.800E+00 -.258E-25   0.414E-08 0.358E-04 -.955E-10
   0.356E-08 -.296E+02 -.146E-06   -.950E-13 0.304E+02 -.284E-13   0.751E-25 -.800E+00 -.258E-25   -.414E-08 0.358E-04 0.992E-10
   0.356E-08 -.296E+02 -.146E-06   -.870E-13 0.304E+02 0.355E-14   0.210E-25 -.800E+00 0.258E-25   0.414E-08 0.358E-04 -.959E-10
   0.356E-08 -.296E+02 -.146E-06   -.462E-13 0.304E+02 0.000E+00   -.409E-25 -.800E+00 0.000E+00   -.414E-08 0.358E-04 0.987E-10
   0.299E-09 0.547E+02 0.216E-06   -.178E-14 -.558E+02 -.639E-13   -.808E-27 0.106E+01 -.258E-25   0.150E-09 -.324E-04 0.127E-09
   0.299E-09 0.547E+02 0.216E-06   0.231E-13 -.558E+02 -.933E-13   0.444E-26 0.106E+01 -.258E-25   -.150E-09 -.324E-04 -.124E-09
   0.299E-09 0.547E+02 0.216E-06   0.355E-13 -.558E+02 -.924E-13   -.121E-26 0.106E+01 0.775E-25   0.150E-09 -.324E-04 0.127E-09
   0.299E-09 0.547E+02 0.216E-06   0.302E-13 -.558E+02 -.639E-13   0.634E-26 0.106E+01 0.630E-25   -.150E-09 -.324E-04 -.124E-09
   -.418E+02 0.164E+02 -.150E+01   0.427E+02 -.165E+02 0.151E+01   -.919E+00 0.131E+00 -.933E-02   0.472E-04 0.113E-04 0.743E-05
   -.418E+02 0.164E+02 -.150E+01   0.427E+02 -.165E+02 0.151E+01   -.919E+00 0.131E+00 -.933E-02   0.472E-04 0.113E-04 0.743E-05
   -.418E+02 0.164E+02 -.150E+01   0.427E+02 -.165E+02 0.151E+01   -.919E+00 0.131E+00 -.933E-02   0.472E-04 0.113E-04 0.743E-05
   -.418E+02 0.164E+02 -.150E+01   0.427E+02 -.165E+02 0.151E+01   -.919E+00 0.131E+00 -.933E-02   0.472E-04 0.113E-04 0.743E-05
   0.418E+02 0.164E+02 0.150E+01   -.427E+02 -.165E+02 -.151E+01   0.919E+00 0.131E+00 0.930E-02   -.472E-04 -.151E-04 0.839E-05
   0.418E+02 0.164E+02 0.150E+01   -.427E+02 -.165E+02 -.151E+01   0.919E+00 0.131E+00 0.930E-02   -.472E-04 -.151E-04 0.839E-05
   0.418E+02 0.164E+02 0.150E+01   -.427E+02 -.165E+02 -.151E+01   0.919E+00 0.131E+00 0.930E-02   -.472E-04 -.151E-04 0.839E-05
   0.418E+02 0.164E+02 0.150E+01   -.427E+02 -.165E+02 -.151E+01   0.919E+00 0.131E+00 0.930E-02   -.472E-04 -.151E-04 0.839E-05
   0.358E-08 -.296E+02 -.146E-06   0.497E-13 0.304E+02 0.853E-13   0.105E-25 -.800E+00 0.129E-25   0.421E-10 0.620E-04 -.132E-09
   0.358E-08 -.296E+02 -.146E-06   0.355E-13 0.304E+02 0.817E-13   0.404E-26 -.800E+00 0.000E+00   -.421E-10 0.620E-04 0.129E-09
   0.358E-08 -.296E+02 -.146E-06   0.568E-13 0.304E+02 0.142E-12   0.656E-25 -.800E+00 -.129E-25   0.419E-10 0.620E-04 -.132E-09
   0.358E-08 -.296E+02 -.146E-06   0.284E-13 0.304E+02 0.817E-13   0.177E-25 -.800E+00 0.969E-26   -.418E-10 0.620E-04 0.129E-09
   0.294E-09 0.547E+02 0.216E-06   0.711E-13 -.558E+02 -.409E-13   -.646E-26 0.106E+01 0.775E-25   0.414E-08 -.590E-04 -.990E-10
   0.293E-09 0.547E+02 0.216E-06   0.497E-13 -.558E+02 -.284E-13   0.456E-25 0.106E+01 0.000E+00   -.414E-08 -.590E-04 0.953E-10
   0.294E-09 0.547E+02 0.216E-06   0.639E-13 -.558E+02 -.391E-13   -.105E-25 0.106E+01 0.517E-25   0.414E-08 -.590E-04 -.987E-10
   0.293E-09 0.547E+02 0.216E-06   0.568E-13 -.558E+02 -.284E-13   -.141E-25 0.106E+01 0.452E-25   -.414E-08 -.590E-04 0.959E-10
   0.336E+01 -.154E+02 0.507E+00   -.332E+01 0.148E+02 -.516E+00   -.424E-01 0.632E+00 0.922E-02   -.420E-05 0.142E-04 0.117E-04
   0.336E+01 -.154E+02 0.507E+00   -.332E+01 0.148E+02 -.516E+00   -.424E-01 0.632E+00 0.922E-02   -.422E-05 0.142E-04 0.117E-04
   0.336E+01 -.154E+02 0.507E+00   -.332E+01 0.148E+02 -.516E+00   -.424E-01 0.632E+00 0.922E-02   -.420E-05 0.141E-04 0.117E-04
   0.336E+01 -.154E+02 0.507E+00   -.332E+01 0.148E+02 -.516E+00   -.424E-01 0.632E+00 0.922E-02   -.422E-05 0.141E-04 0.117E-04
   -.336E+01 -.154E+02 -.507E+00   0.332E+01 0.148E+02 0.516E+00   0.424E-01 0.632E+00 -.922E-02   0.422E-05 0.142E-04 -.117E-04
   -.336E+01 -.154E+02 -.507E+00   0.332E+01 0.148E+02 0.516E+00   0.424E-01 0.632E+00 -.922E-02   0.420E-05 0.142E-04 -.117E-04
   -.336E+01 -.154E+02 -.507E+00   0.332E+01 0.148E+02 0.516E+00   0.424E-01 0.632E+00 -.922E-02   0.422E-05 0.141E-04 -.117E-04
   -.336E+01 -.154E+02 -.507E+00   0.332E+01 0.148E+02 0.516E+00   0.424E-01 0.632E+00 -.922E-02   0.420E-05 0.141E-04 -.117E-04
   0.336E+01 -.154E+02 0.516E+00   -.332E+01 0.148E+02 -.525E+00   -.424E-01 0.632E+00 0.914E-02   -.220E-05 0.140E-04 -.162E-04
   0.336E+01 -.154E+02 0.516E+00   -.332E+01 0.148E+02 -.525E+00   -.424E-01 0.632E+00 0.914E-02   -.221E-05 0.140E-04 -.162E-04
   0.336E+01 -.154E+02 0.516E+00   -.332E+01 0.148E+02 -.525E+00   -.424E-01 0.632E+00 0.914E-02   -.220E-05 0.140E-04 -.162E-04
   0.336E+01 -.154E+02 0.516E+00   -.332E+01 0.148E+02 -.525E+00   -.424E-01 0.632E+00 0.914E-02   -.221E-05 0.140E-04 -.162E-04
   -.336E+01 -.154E+02 -.516E+00   0.332E+01 0.148E+02 0.525E+00   0.424E-01 0.632E+00 -.914E-02   0.221E-05 0.140E-04 0.162E-04
   -.336E+01 -.154E+02 -.516E+00   0.332E+01 0.148E+02 0.525E+00   0.424E-01 0.632E+00 -.914E-02   0.220E-05 0.140E-04 0.162E-04
   -.336E+01 -.154E+02 -.516E+00   0.332E+01 0.148E+02 0.525E+00   0.424E-01 0.632E+00 -.914E-02   0.221E-05 0.140E-04 0.162E-04
   -.336E+01 -.154E+02 -.516E+00   0.332E+01 0.148E+02 0.525E+00   0.424E-01 0.632E+00 -.914E-02   0.220E-05 0.140E-04 0.162E-04
   -.406E+01 -.152E+02 0.749E+00   0.397E+01 0.144E+02 -.766E+00   0.847E-01 0.824E+00 0.168E-01   0.170E-04 -.158E-04 -.174E-04
   -.406E+01 -.152E+02 0.749E+00   0.397E+01 0.144E+02 -.766E+00   0.847E-01 0.824E+00 0.168E-01   0.170E-04 -.158E-04 -.174E-04
   -.406E+01 -.152E+02 0.749E+00   0.397E+01 0.144E+02 -.766E+00   0.847E-01 0.824E+00 0.168E-01   0.170E-04 -.158E-04 -.174E-04
   -.406E+01 -.152E+02 0.749E+00   0.397E+01 0.144E+02 -.766E+00   0.847E-01 0.824E+00 0.168E-01   0.170E-04 -.158E-04 -.174E-04
   0.406E+01 -.152E+02 -.749E+00   -.397E+01 0.144E+02 0.766E+00   -.847E-01 0.824E+00 -.168E-01   -.170E-04 -.158E-04 0.174E-04
   0.406E+01 -.152E+02 -.749E+00   -.397E+01 0.144E+02 0.766E+00   -.847E-01 0.824E+00 -.168E-01   -.170E-04 -.158E-04 0.174E-04
   0.406E+01 -.152E+02 -.749E+00   -.397E+01 0.144E+02 0.766E+00   -.847E-01 0.824E+00 -.168E-01   -.170E-04 -.158E-04 0.174E-04
   0.406E+01 -.152E+02 -.749E+00   -.397E+01 0.144E+02 0.766E+00   -.847E-01 0.824E+00 -.168E-01   -.170E-04 -.158E-04 0.174E-04
   -.406E+01 -.152E+02 0.745E+00   0.397E+01 0.144E+02 -.761E+00   0.848E-01 0.824E+00 0.167E-01   0.144E-04 -.134E-04 0.658E-05
   -.406E+01 -.152E+02 0.745E+00   0.397E+01 0.144E+02 -.761E+00   0.848E-01 0.824E+00 0.167E-01   0.144E-04 -.134E-04 0.658E-05
   -.406E+01 -.152E+02 0.745E+00   0.397E+01 0.144E+02 -.761E+00   0.848E-01 0.824E+00 0.167E-01   0.144E-04 -.134E-04 0.658E-05
   -.406E+01 -.152E+02 0.745E+00   0.397E+01 0.144E+02 -.761E+00   0.848E-01 0.824E+00 0.167E-01   0.144E-04 -.134E-04 0.658E-05
   0.406E+01 -.152E+02 -.745E+00   -.397E+01 0.144E+02 0.761E+00   -.848E-01 0.824E+00 -.167E-01   -.144E-04 -.134E-04 -.658E-05
   0.406E+01 -.152E+02 -.745E+00   -.397E+01 0.144E+02 0.761E+00   -.848E-01 0.824E+00 -.167E-01   -.144E-04 -.134E-04 -.658E-05
   0.406E+01 -.152E+02 -.745E+00   -.397E+01 0.144E+02 0.761E+00   -.848E-01 0.824E+00 -.167E-01   -.144E-04 -.134E-04 -.658E-05
   0.406E+01 -.152E+02 -.745E+00   -.397E+01 0.144E+02 0.761E+00   -.848E-01 0.824E+00 -.167E-01   -.144E-04 -.134E-04 -.658E-05
   -.264E-07 -.275E+02 0.216E-04   0.369E-12 -.131E-12 0.654E-12   -.430E-15 0.275E+02 0.347E-17   -.561E-11 -.136E-04 -.301E-11

 POSITION                                       TOTAL-FORCE (eV/Angst)
      1.35756      1.28373      1.33703         0.001925     -0.014190      0.001217
      6.61390      1.28373      1.46090         0.001925     -0.014190      0.001217
      1.35756      6.54299      1.33703         0.001925     -0.014190      0.001217
      6.61390      6.54299      1.46090         0.001925     -0.014190      0.001217
      3.96010      3.91336      1.38875        -0.001900     -0.014170     -0.001191
      9.21645      3.91336      1.51263        -0.001900     -0.014170     -0.001191
      3.96010      9.17261      1.38875        -0.001900     -0.014170     -0.001191
      9.21645      9.17261      1.51263        -0.001900     -0.014170     -0.001191
      1.52870      3.91132      9.13765         0.000000     -0.015616      0.000000
      6.78504      3.91132      9.26153         0.000000     -0.015616      0.000000
      1.52870      9.17057      9.13765         0.000000     -0.015616      0.000000
      6.78504      9.17057      9.26153         0.000000     -0.015616      0.000000
      4.15687      1.30444      9.19959         0.000000     -0.013062      0.000000
      9.41321      1.30444      9.32346         0.000000     -0.013062      0.000000
      4.15687      6.56370      9.19959         0.000000     -0.013062      0.000000
      9.41321      6.56370      9.32346         0.000000     -0.013062      0.000000
      1.45457      1.28373      6.53064        -0.001925     -0.014190     -0.001217
      6.71091      1.28373      6.65451        -0.001925     -0.014190     -0.001217
      1.45457      6.54299      6.53064        -0.001925     -0.014190     -0.001217
      6.71091      6.54299      6.65451        -0.001925     -0.014190     -0.001217
      4.10837      3.91336      6.60279         0.001900     -0.014170      0.001191
      9.36471      3.91336      6.72666         0.001900     -0.014170      0.001191
      4.10837      9.17261      6.60279         0.001900     -0.014170      0.001191
      9.36471      9.17261      6.72666         0.001900     -0.014170      0.001191
      4.03423      1.28169      3.99577         0.000000     -0.015610      0.000000
      9.29058      1.28169      4.11964         0.000000     -0.015610      0.000000
      4.03423      6.54095      3.99577         0.000000     -0.015610      0.000000
      9.29058      6.54095      4.11964         0.000000     -0.015610      0.000000
      1.40606      3.93407      3.93383         0.000000     -0.013112      0.000000
      6.66241      3.93407      4.05771         0.000000     -0.013112      0.000000
      1.40606      9.19332      3.93383         0.000000     -0.013112      0.000000
      6.66241      9.19332      4.05771         0.000000     -0.013112      0.000000
     10.62580      0.02707      5.45127        -0.004276      0.015990      0.000047
      5.36945      0.02707      5.32740        -0.004276      0.015990      0.000047
     10.62580      5.28633      5.45127        -0.004276      0.015990      0.000047
      5.36945      5.28633      5.32740        -0.004276      0.015990      0.000047
      2.69902      0.02707      2.66414         0.004276      0.015990     -0.000047
      7.95536      0.02707      2.78802         0.004276      0.015990     -0.000047
      2.69902      5.28633      2.66414         0.004276      0.015990     -0.000047
      7.95536      5.28633      2.78802         0.004276      0.015990     -0.000047
      2.86392      2.65671     10.46929        -0.004278      0.015933     -0.000012
      8.12026      2.65671     10.59316        -0.004278      0.015933     -0.000012
      2.86392      7.91597     10.46929        -0.004278      0.015933     -0.000012
      8.12026      7.91597     10.59316        -0.004278      0.015933     -0.000012
      0.19348      2.65671      7.80602         0.004278      0.015933      0.000012
      5.44982      2.65671      7.92989         0.004278      0.015933      0.000012
      0.19348      7.91597      7.80602         0.004278      0.015933      0.000012
      5.44982      7.91597      7.92989         0.004278      0.015933      0.000012
     10.50781      0.02575      0.24902        -0.004853      0.012575      0.000075
      5.25147      0.02575      0.12514        -0.004853      0.012575      0.000075
     10.50781      5.28500      0.24902        -0.004853      0.012575      0.000075
      5.25147      5.28500      0.12514        -0.004853      0.012575      0.000075
      2.81700      0.02575      7.86640         0.004853      0.012575     -0.000075
      8.07335      0.02575      7.99027         0.004853      0.012575     -0.000075
      2.81700      5.28500      7.86640         0.004853      0.012575     -0.000075
      8.07335      5.28500      7.99027         0.004853      0.012575     -0.000075
      2.74593      2.65538      5.26702        -0.004852      0.012562      0.000085
      8.00227      2.65538      5.39090        -0.004852      0.012562      0.000085
      2.74593      7.91463      5.26702        -0.004852      0.012562      0.000085
      8.00227      7.91463      5.39090        -0.004852      0.012562      0.000085
      0.06619      2.65538      2.60064         0.004852      0.012562     -0.000085
      5.32254      2.65538      2.72451         0.004852      0.012562     -0.000085
      0.06619      7.91463      2.60064         0.004852      0.012562     -0.000085
      5.32254      7.91463      2.72451         0.004852      0.012562     -0.000085
    total drift:                               -0.000000      0.000126      0.000022

  FREE ENERGIE OF THE ION-ELECTRON SYSTEM (eV)
  free  energy   TOTEN  =      -327.20880313 eV

  energy  without entropy=     -327.20880313  energy(sigma->0) =     -327.20880313

 writing wavefunctions

 total charge

[...]

 magnetization (x)

# of ion       s       p       d       tot
    1       -0.000  -0.012   0.000  -0.012
    2       -0.000  -0.012   0.000  -0.012
    3       -0.000  -0.012   0.000  -0.012
    4       -0.000  -0.012   0.000  -0.012
    5        0.000   0.012   0.000   0.012
    6        0.000   0.012   0.000   0.012
    7        0.000   0.012   0.000   0.012
    8        0.000   0.012   0.000   0.012
    9       -0.000   0.000   0.000   0.000
   10        0.000  -0.000   0.000  -0.000
   11       -0.000   0.000   0.000   0.000
   12        0.000  -0.000   0.000  -0.000
   13        0.000  -0.000   0.000  -0.000
   14       -0.000   0.000   0.000   0.000
   15        0.000  -0.000   0.000  -0.000
   16       -0.000   0.000   0.000   0.000
   17        0.000   0.012   0.000   0.012
   18        0.000   0.012   0.000   0.012
   19        0.000   0.012   0.000   0.012
   20        0.000   0.012   0.000   0.012
   21       -0.000  -0.012   0.000  -0.012
   22       -0.000  -0.012   0.000  -0.012
   23       -0.000  -0.012   0.000  -0.012
   24       -0.000  -0.012   0.000  -0.012
   25       -0.000   0.000   0.000   0.000
   26        0.000  -0.000   0.000  -0.000
   27       -0.000   0.000   0.000   0.000
   28        0.000  -0.000   0.000  -0.000
   29        0.000  -0.000   0.000  -0.000
   30       -0.000   0.000   0.000   0.000
   31        0.000  -0.000   0.000  -0.000
   32       -0.000   0.000   0.000   0.000
   33        0.001  -0.000  -0.002  -0.001
   34        0.001  -0.000  -0.002  -0.001
   35        0.001  -0.000  -0.002  -0.001
   36        0.001  -0.000  -0.002  -0.001
   37       -0.001   0.000   0.002   0.001
   38       -0.001   0.000   0.002   0.001
   39       -0.001   0.000   0.002   0.001
   40       -0.001   0.000   0.002   0.001
   41        0.001  -0.000  -0.002  -0.001
   42        0.001  -0.000  -0.002  -0.001
   43        0.001  -0.000  -0.002  -0.001
   44        0.001  -0.000  -0.002  -0.001
   45       -0.001   0.000   0.002   0.001
   46       -0.001   0.000   0.002   0.001
   47       -0.001   0.000   0.002   0.001
   48       -0.001   0.000   0.002   0.001
   49        0.020   0.056   3.670   3.746
   50        0.020   0.056   3.670   3.746
   51        0.020   0.056   3.670   3.746
   52        0.020   0.056   3.670   3.746
   53       -0.020  -0.056  -3.670  -3.746
   54       -0.020  -0.056  -3.670  -3.746
   55       -0.020  -0.056  -3.670  -3.746
   56       -0.020  -0.056  -3.670  -3.746
   57        0.020   0.056   3.670   3.746
   58        0.020   0.056   3.670   3.746
   59        0.020   0.056   3.670   3.746
   60        0.020   0.056   3.670   3.746
   61       -0.020  -0.056  -3.670  -3.746
   62       -0.020  -0.056  -3.670  -3.746
   63       -0.020  -0.056  -3.670  -3.746
   64       -0.020  -0.056  -3.670  -3.746
tot         -0.000  -0.000   0.000   0.000