 vasp.5.4.4.18Apr17-6-g9f103f2a35 (build Oct 30 2023 17:49:44) complex

 executed on             LinuxIFC date 2024.12.05  21:43:11

 INCAR:
 POTCAR:    PAW_PBE S 06Sep2000
 POTCAR:     PAW_PBE Cu_pv 06Sep2000
 POTCAR:     PAW_PBE Fe_pv 02Aug2007

   TITEL  = PAW_PBE S 06Sep2000
   POMASS =   32.066; ZVAL   =    6.000    mass and valenz
   ENMAX  =  258.689; ENMIN  =  194.016 eV

   TITEL  = PAW_PBE Cu_pv 06Sep2000
   POMASS =   63.546; ZVAL   =   17.000    mass and valenz
   ENMAX  =  368.648; ENMIN  =  276.486 eV

   TITEL  = PAW_PBE Fe_pv 02Aug2007
   POMASS =   55.847; ZVAL   =   14.000    mass and valenz
   ENMAX  =  293.238; ENMIN  =  219.928 eV

  PAW_PBE S 06Sep2000                   :
   PAW_PBE Cu_pv 06Sep2000              :
   PAW_PBE Fe_pv 02Aug2007              :

 POSCAR: Fe4 Cu4 S8
  positions in direct lattice
  velocities in cartesian coordinates
 exchange correlation table for  LEXCH =       14
   RHO(1)=    0.500       N(1)  =     2000
   RHO(2)=  100.500       N(2)  =     4000

 ion  position               nearest neighbor table
   1  0.254  0.229  0.127-  11 2.25  16 2.25  10 2.29  13 2.31
   2  0.746  0.729  0.123-  10 2.25  13 2.25  11 2.29  16 2.31
   3  0.250  0.737  0.875-  13 2.27  14 2.27  11 2.28  12 2.28
   4  0.750  0.239  0.875-  11 2.26  12 2.26  13 2.30  14 2.30
   5  0.246  0.229  0.623-  12 2.25  15 2.25   9 2.29  14 2.31
   6  0.754  0.729  0.627-   9 2.25  14 2.25  12 2.29  15 2.31
   7  0.750  0.237  0.375-  16 2.27  15 2.27  10 2.28   9 2.28
   8  0.250  0.739  0.375-   9 2.26  10 2.26  16 2.30  15 2.30
   9  0.991  0.016  0.500-   6 2.25   8 2.26   7 2.28   5 2.29
  10  0.509  0.016  0.250-   2 2.25   8 2.26   7 2.28   1 2.29
  11  0.491  0.516  0.000-   1 2.25   4 2.26   3 2.28   2 2.29
  12  0.009  0.516  0.750-   5 2.25   4 2.26   3 2.28   6 2.29
  13  0.995  0.016  0.002-   2 2.25   3 2.27   4 2.30   1 2.31
  14  0.505  0.016  0.748-   6 2.25   3 2.27   4 2.30   5 2.31
  15  0.495  0.516  0.502-   5 2.25   7 2.27   8 2.30   6 2.31
  16  0.005  0.516  0.248-   1 2.25   7 2.27   8 2.30   2 2.31

  LATTYP: Found a simple monoclinic cell.
 ALAT       =    12.3697239468
 B/A-ratio  =     0.4265738355
 C/A-ratio  =     1.7984564111
 COS(beta)  =    -0.9805395588

  Lattice vectors:

 A1 = (  -6.0572080000,   0.0000000000, -10.7851890000)
 A2 = (   0.0000000000,  -5.2766005884,   0.0000000000)
 A3 = (   6.8736400000,   0.0000000000,  21.1578780000)

Analysis of symmetry for initial positions (statically):
 Subroutine PRICEL returns following result:

  LATTYP: Found a base centered monoclinic cell.
 ALAT       =    10.8986322420
 B/A-ratio  =     0.4841525497
 C/A-ratio  =     0.9546858493
 COS(beta)  =    -0.7913521143

[...]

   2 primitive cells build up your supercell.

 Routine SETGRP: Setting up the symmetry group for a
 simple monoclinic supercell.

 Subroutine GETGRP returns: Found  2 space group operations
 (whereof  1 operations were pure point group operations)
 out of a pool of  4 trial point group operations.

The static configuration has the point symmetry C_1 .
 The point group associated with its full space group is C_2 .

Analysis of symmetry for dynamics (positions and initial velocities):
 Subroutine PRICEL returns following result:

[...]

The dynamic configuration has the point symmetry C_1 .
 The point group associated with its full space group is C_2 .

Analysis of structural, dynamic, and magnetic symmetry:
 Subroutine PRICEL returns following result:

  LATTYP: Found a base centered monoclinic cell.
 ALAT       =    10.8986322420
 B/A-ratio  =     0.4841525497
 C/A-ratio  =     0.9546858493
 COS(beta)  =    -0.7913521143

  Lattice vectors:

 A1 = (  -2.2121720000,  -2.6383002942,   4.9800945000)
 A2 = (  -2.2121720000,   2.6383002942,   4.9800945000)
 A3 = (  -0.8164320000,   0.0000000000, -10.3726890000)

   2 primitive cells build up your supercell.

 Routine SETGRP: Setting up the symmetry group for a
 simple monoclinic supercell.

 Subroutine GETGRP returns: Found  2 space group operations
 (whereof  1 operations were pure point group operations)
 out of a pool of  4 trial point group operations.

The (compounded) configuration has the point symmetry C_1 .
 The point group associated with its full space group is C_2 .

 Subroutine INISYM returns: Found  2 space group operations
 (whereof  1 operations are pure point group operations),
 and found     2 'primitive' translations

 KPOINTS: Automatic mesh

Automatic generation of k-mesh.
Space group operators:
 irot       det(A)        alpha          n_x          n_y          n_z        tau_x        tau_y        tau_z
    1     1.000000     0.000000     1.000000     0.000000     0.000000     0.000000     0.000000     0.000000
    2     1.000000   179.999999     0.000000     1.000000     0.000000    -0.500000     0.000000    -0.250000

 Subroutine IBZKPT returns following result:

 Found     60 irreducible k-points:

 Following reciprocal coordinates:
            Coordinates               Weight
  0.000000  0.000000  0.000000      1.000000
  0.166667  0.000000  0.000000      2.000000
  0.333333  0.000000  0.000000      2.000000
  0.500000  0.000000  0.000000      1.000000
  0.000000  0.166667  0.000000      1.000000
  0.166667  0.166667  0.000000      2.000000
  0.333333  0.166667  0.000000      2.000000
  0.500000  0.166667  0.000000      1.000000
  0.000000  0.333333  0.000000      1.000000
  0.166667  0.333333  0.000000      2.000000
  0.333333  0.333333  0.000000      2.000000
  0.500000  0.333333  0.000000      1.000000
  0.000000  0.500000  0.000000      1.000000
  0.166667  0.500000  0.000000      2.000000
  0.333333  0.500000  0.000000      2.000000
  0.500000  0.500000  0.000000      1.000000
  0.000000 -0.333333  0.000000      1.000000
  0.166667 -0.333333  0.000000      2.000000
  0.333333 -0.333333  0.000000      2.000000
  0.500000 -0.333333  0.000000      1.000000
  0.000000 -0.166667  0.000000      1.000000
  0.166667 -0.166667  0.000000      2.000000
  0.333333 -0.166667  0.000000      2.000000
  0.500000 -0.166667  0.000000      1.000000
  0.000000  0.000000  0.333333      2.000000
  0.166667  0.000000  0.333333      2.000000
  0.333333  0.000000  0.333333      2.000000
  0.500000  0.000000  0.333333      2.000000
 -0.333333  0.000000  0.333333      2.000000
 -0.166667  0.000000  0.333333      2.000000
  0.000000  0.166667  0.333333      2.000000
  0.166667  0.166667  0.333333      2.000000
  0.333333  0.166667  0.333333      2.000000
  0.500000  0.166667  0.333333      2.000000
 -0.333333  0.166667  0.333333      2.000000
 -0.166667  0.166667  0.333333      2.000000
  0.000000  0.333333  0.333333      2.000000
  0.166667  0.333333  0.333333      2.000000
  0.333333  0.333333  0.333333      2.000000
  0.500000  0.333333  0.333333      2.000000
 -0.333333  0.333333  0.333333      2.000000
 -0.166667  0.333333  0.333333      2.000000
  0.000000  0.500000  0.333333      2.000000
  0.166667  0.500000  0.333333      2.000000
  0.333333  0.500000  0.333333      2.000000
  0.500000  0.500000  0.333333      2.000000
 -0.333333  0.500000  0.333333      2.000000
 -0.166667  0.500000  0.333333      2.000000
  0.000000 -0.333333  0.333333      2.000000
  0.166667 -0.333333  0.333333      2.000000
  0.333333 -0.333333  0.333333      2.000000
  0.500000 -0.333333  0.333333      2.000000
 -0.333333 -0.333333  0.333333      2.000000
 -0.166667 -0.333333  0.333333      2.000000
  0.000000 -0.166667  0.333333      2.000000
  0.166667 -0.166667  0.333333      2.000000
  0.333333 -0.166667  0.333333      2.000000
  0.500000 -0.166667  0.333333      2.000000
 -0.333333 -0.166667  0.333333      2.000000
 -0.166667 -0.166667  0.333333      2.000000

 Following cartesian coordinates:
            Coordinates               Weight
  0.000000  0.000000  0.000000      1.000000
  0.032000  0.000000 -0.002519      2.000000
  0.064000  0.000000 -0.005037      2.000000
  0.096000  0.000000 -0.007556      1.000000
  0.000000  0.031586  0.000000      1.000000
  0.032000  0.031586 -0.002519      2.000000
  0.064000  0.031586 -0.005037      2.000000
  0.096000  0.031586 -0.007556      1.000000
  0.000000  0.063172  0.000000      1.000000
  0.032000  0.063172 -0.002519      2.000000
  0.064000  0.063172 -0.005037      2.000000
  0.096000  0.063172 -0.007556      1.000000
  0.000000  0.094758  0.000000      1.000000
  0.032000  0.094758 -0.002519      2.000000
  0.064000  0.094758 -0.005037      2.000000
  0.096000  0.094758 -0.007556      1.000000
  0.000000 -0.063172  0.000000      1.000000
  0.032000 -0.063172 -0.002519      2.000000
  0.064000 -0.063172 -0.005037      2.000000
  0.096000 -0.063172 -0.007556      1.000000
  0.000000 -0.031586  0.000000      1.000000
  0.032000 -0.031586 -0.002519      2.000000
  0.064000 -0.031586 -0.005037      2.000000
  0.096000 -0.031586 -0.007556      1.000000
 -0.002545  0.000000  0.032336      2.000000
  0.029455  0.000000  0.029817      2.000000
  0.061455  0.000000  0.027299      2.000000
  0.093455  0.000000  0.024780      2.000000
 -0.066545  0.000000  0.037373      2.000000
 -0.034545  0.000000  0.034855      2.000000
 -0.002545  0.031586  0.032336      2.000000
  0.029455  0.031586  0.029817      2.000000
  0.061455  0.031586  0.027299      2.000000
  0.093455  0.031586  0.024780      2.000000
 -0.066545  0.031586  0.037373      2.000000
 -0.034545  0.031586  0.034855      2.000000
 -0.002545  0.063172  0.032336      2.000000
  0.029455  0.063172  0.029817      2.000000
  0.061455  0.063172  0.027299      2.000000
  0.093455  0.063172  0.024780      2.000000
 -0.066545  0.063172  0.037373      2.000000
 -0.034545  0.063172  0.034855      2.000000
 -0.002545  0.094758  0.032336      2.000000
  0.029455  0.094758  0.029817      2.000000
  0.061455  0.094758  0.027299      2.000000
  0.093455  0.094758  0.024780      2.000000
 -0.066545  0.094758  0.037373      2.000000
 -0.034545  0.094758  0.034855      2.000000
 -0.002545 -0.063172  0.032336      2.000000
  0.029455 -0.063172  0.029817      2.000000
  0.061455 -0.063172  0.027299      2.000000
  0.093455 -0.063172  0.024780      2.000000
 -0.066545 -0.063172  0.037373      2.000000
 -0.034545 -0.063172  0.034855      2.000000
 -0.002545 -0.031586  0.032336      2.000000
  0.029455 -0.031586  0.029817      2.000000
  0.061455 -0.031586  0.027299      2.000000
  0.093455 -0.031586  0.024780      2.000000
 -0.066545 -0.031586  0.037373      2.000000
 -0.034545 -0.031586  0.034855      2.000000

 TETIRR: Found    648 inequivalent tetrahedra from      648

 Subroutine IBZKPT_HF returns following result:

 Found    108 k-points in 1st BZ
 the following    108 k-points will be used (e.g. in the exchange kernel)
 Following reciprocal coordinates:   # in IRBZ
  0.000000  0.000000  0.000000    0.00925926   1 t-inv F
  0.166667  0.000000  0.000000    0.00925926   2 t-inv F
  0.333333  0.000000  0.000000    0.00925926   3 t-inv F
  0.500000  0.000000  0.000000    0.00925926   4 t-inv F
  0.000000  0.166667  0.000000    0.00925926   5 t-inv F
  0.166667  0.166667  0.000000    0.00925926   6 t-inv F
  0.333333  0.166667  0.000000    0.00925926   7 t-inv F
[...]
 augmentation part       70.5745131 magnetization      -0.0000000     -0.0169027     -0.0000000

 Free energy of the ion-electron system (eV)
  alpha Z        PSCENC =       594.41723832
  Ewald energy   TEWEN  =    -15687.01618010
  -Hartree energ DENC   =    -10696.65466187
  -exchange      EXHF   =         0.00000000
  -V(xc)+E(xc)   XCENC  =       821.59029662
  PAW double counting   =     28014.04076639   -28936.44854710
  entropy T*S    EENTRO =         0.00000000
  eigenvalues    EBANDS =     -2696.55906984
  atomic energy  EATOM  =     28505.01627691
  Solvation  Ediel_sol  =         0.00000000
  free energy    TOTEN  =       -81.61388068 eV

  energy without entropy =      -81.61388068  energy(sigma->0) =      -81.61388068

 average (electrostatic) potential at core
  the test charge radii are     0.9698  0.8297  0.9500
  (the norm of the test charge is              1.0000)
       1 -86.5273       2 -86.5273       3 -86.6169       4 -86.4076       5 -86.5273
       6 -86.5273       7 -86.6169       8 -86.4076       9 -80.6120      10 -80.6120
      11 -80.6120      12 -80.6120      13 -80.0266      14 -80.0266      15 -80.0266
      16 -80.0266

 E-fermi :   5.0702     XC(G=0): -10.5295     alpha+bet :-10.6427

 k-point     1 :       0.0000    0.0000    0.0000
  band No.  band energies     occupation
      1     -65.9009      1.00000
      2     -65.9009      1.00000
      3     -65.9009      1.00000
      4     -65.9009      1.00000
      5     -65.8855      1.00000
      6     -65.8855      1.00000
      7     -65.8855      1.00000
      8     -65.8855      1.00000
      9     -63.3608      1.00000
     10     -63.3607      1.00000
     11     -63.3606      1.00000
     12     -63.3605      1.00000
     13     -63.3539      1.00000
     14     -63.3538      1.00000
     15     -63.3536      1.00000
     16     -63.3535      1.00000
     17     -63.3336      1.00000
     18     -63.3336      1.00000
     19     -63.3335      1.00000
     20     -63.3335      1.00000
     21     -63.3251      1.00000
     22     -63.3251      1.00000
     23     -63.3251      1.00000
     24     -63.3251      1.00000
     25     -52.2539      1.00000
     26     -52.2539      1.00000
     27     -52.2539      1.00000
     28     -52.2539      1.00000
     29     -51.8367      1.00000
     30     -51.8366      1.00000
     31     -51.8366      1.00000
     32     -51.8366      1.00000
     33     -51.1012      1.00000
     34     -51.1012      1.00000
     35     -51.1012      1.00000
     36     -51.1012      1.00000
     37     -47.9043      1.00000
     38     -47.9043      1.00000
     39     -47.9043      1.00000
     40     -47.9042      1.00000
     41     -47.4513      1.00000
     42     -47.4513      1.00000
     43     -47.4513      1.00000
     44     -47.4513      1.00000
     45     -47.0302      1.00000
     46     -47.0302      1.00000
     47     -47.0302      1.00000
     48     -47.0302      1.00000
     49      -9.0469      1.00000
     50      -9.0466      1.00000
     51      -8.3921      1.00000
     52      -8.3915      1.00000
     53      -8.3682      1.00000
     54      -8.3673      1.00000
     55      -7.7146      1.00000
     56      -7.7144      1.00000
     57      -7.6876      1.00000
     58      -7.6871      1.00000
     59      -7.6578      1.00000
     60      -7.6569      1.00000
[...]
    242      14.6011      0.00000
    243      14.7477      0.00000
    244      14.7575      0.00000
    245      15.0388      0.00000
    246      15.0397      0.00000
    247      15.2191      0.00000
    248      15.2198      0.00000
    249      15.9568      0.00000
    250      15.9569      0.00000
    251      16.0551      0.00000
    252      16.0551      0.00000
    253      16.6353      0.00000
    254      16.6356      0.00000
    255      16.8612      0.00000
    256      16.8642      0.00000

[...]

 k-point    60 :      -0.1667   -0.1667    0.3333
  band No.  band energies     occupation
      1     -65.9010      1.00000
      2     -65.9010      1.00000
      3     -65.9009      1.00000
      4     -65.9009      1.00000
      5     -65.8855      1.00000
      6     -65.8855      1.00000
      7     -65.8855      1.00000
      8     -65.8855      1.00000
      9     -63.3608      1.00000
     10     -63.3608      1.00000
     11     -63.3605      1.00000
     12     -63.3605      1.00000
     13     -63.3539      1.00000
     14     -63.3539      1.00000
     15     -63.3536      1.00000
     16     -63.3536      1.00000
     17     -63.3336      1.00000
     18     -63.3336      1.00000
     19     -63.3335      1.00000
     20     -63.3335      1.00000
     21     -63.3251      1.00000
     22     -63.3251      1.00000
     23     -63.3251      1.00000
     24     -63.3251      1.00000
     25     -52.2539      1.00000
     26     -52.2539      1.00000
     27     -52.2539      1.00000
     28     -52.2539      1.00000
     29     -51.8367      1.00000
     30     -51.8367      1.00000
     31     -51.8366      1.00000
     32     -51.8366      1.00000
     33     -51.1012      1.00000
     34     -51.1012      1.00000
     35     -51.1012      1.00000
     36     -51.1012      1.00000
     37     -47.9043      1.00000
     38     -47.9043      1.00000
     39     -47.9042      1.00000
     40     -47.9042      1.00000
     41     -47.4514      1.00000
     42     -47.4513      1.00000
     43     -47.4513      1.00000
     44     -47.4513      1.00000
     45     -47.0302      1.00000
     46     -47.0302      1.00000
     47     -47.0302      1.00000
     48     -47.0302      1.00000
     49      -8.7814      1.00000
     50      -8.7805      1.00000
     51      -8.6647      1.00000
     52      -8.6628      1.00000
     53      -7.9001      1.00000
     54      -7.8964      1.00000
     55      -7.8643      1.00000
     56      -7.8616      1.00000
     57      -7.7585      1.00000
     58      -7.7574      1.00000
     59      -7.7343      1.00000
     60      -7.7294      1.00000
[...]
    242      14.6288      0.00000
    243      14.8302      0.00000
    244      14.8513      0.00000
    245      14.8755      0.00000
    246      14.8898      0.00000
    247      15.0744      0.00000
    248      15.0961      0.00000
    249      15.3591      0.00000
    250      15.3873      0.00000
    251      15.5818      0.00000
    252      15.5923      0.00000
    253      15.8202      0.00000
    254      15.8442      0.00000
    255      15.9275      0.00000
    256      15.9492      0.00000

 soft charge-density along one line, spin component           1
         0         1         2         3         4         5         6         7         8         9
 total charge-density along one line

[...]

 soft charge-density along one line, spin component           4
         0         1         2         3         4         5         6         7         8         9
 total charge-density along one line

------------------------ aborting loop because EDIFF is reached ----------------------------------------

            Ionic dipole moment: p[ion]=(     5.71607   157.08216    72.62216 ) electrons Angst

 Total electronic dipole moment: p[elc]=(     0.28103     1.67679     5.13148 ) electrons Angst

[...]

  FORCE on cell =-STRESS in cart. coord.  units (eV):
  Direction    XX          YY          ZZ          XY          YZ          ZX
  Alpha Z   594.41724   594.41724   594.41724
  Ewald   -5206.62888 -5245.68014 -5234.73124     0.00000     0.00000  -146.05993
  Hartree  3586.49602  3528.99820  3581.16026     0.00000     0.00000  -179.85751
  E(xc)   -1050.60855 -1050.70523 -1050.59450     0.00000    -0.00000     0.16403
  Local   -1264.81836 -1170.42571 -1227.12073    -0.00000    -0.00000   332.06319
  n-local   119.18813   120.02139   119.37487    -0.00190     0.00068     5.12025
  augment  1180.09008  1182.06612  1177.02577    -0.00000    -0.00000    -4.14290
  Kinetic  2041.56364  2041.32603  2040.18409    -0.00050     0.00290   -15.59478
  Fock        0.00000     0.00000     0.00000     0.00000     0.00000     0.00000
  Total      -0.30068     0.01789    -0.28424     0.00000     0.00000    -8.30765
  in kB      -1.68993     0.10055    -1.59755     0.00000     0.00000   -46.69242

 VOLUME and BASIS-vectors are now :
  energy-cutoff  :      700.00
  volume of cell :      285.06
      direct lattice vectors                 reciprocal lattice vectors
     5.240776000  0.000000000  0.412500000     0.192000926  0.000000000 -0.015112349
     0.000000000  5.276600588  0.000000000     0.000000000  0.189515955  0.000000000
     0.816432000  0.000000000 10.372689000    -0.007635473  0.000000000  0.097008003

  length of vectors
     5.256984814  5.276600588 10.404769978     0.192594752  0.189515955  0.097308032

 FORCES acting on ions
    electron-ion (+dipol)            ewald-force                    non-local-force                 convergence-correction
   0.386E+02 0.567E+02 0.262E+01   -.393E+02 -.571E+02 -.266E+01   0.679E+00 0.412E+00 0.420E-01   0.208E-05 0.545E-05 0.120E-05
   -.386E+02 0.567E+02 -.262E+01   0.393E+02 -.571E+02 0.266E+01   -.679E+00 0.412E+00 -.420E-01   -.208E-05 0.545E-05 -.120E-05
   0.748E-11 -.565E+01 0.206E-09   0.247E-12 0.613E+01 0.203E-11   0.000E+00 -.477E+00 -.217E-18   0.810E-12 0.364E-06 0.289E-11
   -.195E-11 0.822E+02 0.106E-10   -.497E-12 -.833E+02 0.995E-12   0.949E-19 0.110E+01 -.217E-18   0.361E-11 -.233E-05 0.163E-11
   -.386E+02 0.567E+02 -.262E+01   0.393E+02 -.571E+02 0.266E+01   -.679E+00 0.412E+00 -.420E-01   -.208E-05 0.545E-05 -.120E-05
   0.386E+02 0.567E+02 0.262E+01   -.393E+02 -.571E+02 -.266E+01   0.679E+00 0.412E+00 0.420E-01   0.208E-05 0.545E-05 0.120E-05
   0.827E-11 -.565E+01 0.208E-09   0.536E-11 0.613E+01 0.807E-11   -.136E-19 -.477E+00 0.000E+00   0.324E-11 0.364E-06 0.972E-12
   -.721E-11 0.822E+02 0.140E-10   0.148E-11 -.833E+02 -.927E-11   -.949E-19 0.110E+01 -.434E-18   0.123E-11 -.233E-05 -.188E-13
   0.671E+01 -.516E+02 0.788E+01   -.666E+01 0.496E+02 -.805E+01   -.444E-01 0.198E+01 0.162E+00   -.692E-05 -.125E-04 0.532E-05
   -.671E+01 -.516E+02 -.788E+01   0.666E+01 0.496E+02 0.805E+01   0.444E-01 0.198E+01 -.162E+00   0.692E-05 -.125E-04 -.532E-05
   0.671E+01 -.516E+02 0.788E+01   -.666E+01 0.496E+02 -.805E+01   -.444E-01 0.198E+01 0.162E+00   -.692E-05 -.125E-04 0.532E-05
   -.671E+01 -.516E+02 -.788E+01   0.666E+01 0.496E+02 0.805E+01   0.444E-01 0.198E+01 -.162E+00   0.692E-05 -.125E-04 -.532E-05
   -.154E+02 -.486E+02 0.113E+02   0.152E+02 0.461E+02 -.115E+02   0.276E+00 0.247E+01 0.203E+00   -.266E-04 -.690E-05 0.122E-04
   0.154E+02 -.486E+02 -.113E+02   -.152E+02 0.461E+02 0.115E+02   -.276E+00 0.247E+01 -.203E+00   0.266E-04 -.690E-05 -.122E-04
   -.154E+02 -.486E+02 0.113E+02   0.152E+02 0.461E+02 -.115E+02   0.276E+00 0.247E+01 0.203E+00   -.266E-04 -.690E-05 0.122E-04
   0.154E+02 -.486E+02 -.113E+02   -.152E+02 0.461E+02 0.115E+02   -.276E+00 0.247E+01 -.203E+00   0.266E-04 -.690E-05 -.122E-04
   -.125E-07 -.207E+02 -.185E-07   0.888E-13 0.711E-13 -.426E-13   0.000E+00 0.207E+02 0.278E-16   -.558E-11 -.596E-04 0.659E-11

 POSITION                                       TOTAL-FORCE (eV/Angst)
      1.43340      1.21071      1.41811         0.001253     -0.000276     -0.000047
      4.01149      3.84901      1.58757        -0.001253     -0.000276      0.000047
      2.02457      3.88958      9.17923         0.000000     -0.001563      0.000000
      4.64496      1.26180      9.38548        -0.000000      0.000855     -0.000000
      1.79932      1.21071      6.56766        -0.001253     -0.000276      0.000047
      4.46200      3.84901      6.81070         0.001253     -0.000276     -0.000047
      4.23674      1.25128      4.19913         0.000000     -0.001563     -0.000000
      1.61636      3.90010      3.99288        -0.000000      0.000855      0.000000
      5.60362      0.08492      5.59605         0.000163     -0.000095     -0.000097
      2.86986      0.08492      2.80221        -0.000163     -0.000095      0.000097
      2.57502      2.72322      0.20346         0.000163     -0.000095     -0.000097
      0.65769      2.72322      7.78231        -0.000163     -0.000095      0.000097
      5.21541      0.08613      0.42861         0.000132      0.000725      0.000056
      3.25808      0.08613      7.96965        -0.000132      0.000725     -0.000056
      3.00324      2.72443      5.40871         0.000132      0.000725      0.000056
      0.22947      2.72443      2.57706        -0.000132      0.000725     -0.000056
    total drift:                               -0.000000      0.003280     -0.000000

  FREE ENERGIE OF THE ION-ELECTRON SYSTEM (eV)
  free  energy   TOTEN  =       -81.61388068 eV

  energy  without entropy=      -81.61388068  energy(sigma->0) =      -81.61388068

 writing wavefunctions

 Spin-Orbit-Coupling matrix elements

 Ion:    1  E_soc:     -0.0017536
 l=   1
     0.0000000    -0.0002520    -0.0003652
    -0.0002520     0.0000000    -0.0002596
    -0.0003652    -0.0002596     0.0000000
 l=   2
     0.0000000     0.0000000     0.0000000     0.0000000     0.0000000
     0.0000000     0.0000000     0.0000000     0.0000000     0.0000000
     0.0000000     0.0000000     0.0000000     0.0000000     0.0000000
     0.0000000     0.0000000     0.0000000     0.0000000     0.0000000
     0.0000000     0.0000000     0.0000000     0.0000000     0.0000000
 l=   3
     0.0000000     0.0000000     0.0000000     0.0000000     0.0000000     0.0000000     0.0000000
     0.0000000     0.0000000     0.0000000     0.0000000     0.0000000     0.0000000     0.0000000
     0.0000000     0.0000000     0.0000000     0.0000000     0.0000000     0.0000000     0.0000000
     0.0000000     0.0000000     0.0000000     0.0000000     0.0000000     0.0000000     0.0000000
     0.0000000     0.0000000     0.0000000     0.0000000     0.0000000     0.0000000     0.0000000
     0.0000000     0.0000000     0.0000000     0.0000000     0.0000000     0.0000000     0.0000000
     0.0000000     0.0000000     0.0000000     0.0000000     0.0000000     0.0000000     0.0000000

[...]

 Ion:   16  E_soc:     -0.0366609
 l=   1
     0.0000000    -0.0042872    -0.0043114
    -0.0042872     0.0000000    -0.0042828
    -0.0043114    -0.0042828     0.0000000
 l=   2
     0.0000000    -0.0003534     0.0000000    -0.0003553    -0.0009752
    -0.0003534     0.0000000    -0.0013024    -0.0002860    -0.0004193
     0.0000000    -0.0013024     0.0000000    -0.0013235     0.0000000
    -0.0003553    -0.0002860    -0.0013235     0.0000000    -0.0004339
    -0.0009752    -0.0004193     0.0000000    -0.0004339     0.0000000
 l=   3
     0.0000000     0.0000000     0.0000000     0.0000000     0.0000000     0.0000000     0.0000000
     0.0000000     0.0000000     0.0000000     0.0000000     0.0000000     0.0000000     0.0000000
     0.0000000     0.0000000     0.0000000     0.0000000     0.0000000     0.0000000     0.0000000
     0.0000000     0.0000000     0.0000000     0.0000000     0.0000000     0.0000000     0.0000000
     0.0000000     0.0000000     0.0000000     0.0000000     0.0000000     0.0000000     0.0000000
     0.0000000     0.0000000     0.0000000     0.0000000     0.0000000     0.0000000     0.0000000
     0.0000000     0.0000000     0.0000000     0.0000000     0.0000000     0.0000000     0.0000000

 total charge

[...]

 magnetization (x)

[...]

 magnetization (y)

[...]

 magnetization (z)

# of ion       s       p       d       tot
    1       -0.000  -0.042   0.000  -0.042
    2        0.000   0.042   0.000   0.042
    3        0.000   0.000   0.000   0.000
    4       -0.000  -0.000   0.000  -0.000
    5        0.000   0.042   0.000   0.042
    6       -0.000  -0.042   0.000  -0.042
    7        0.000   0.000   0.000   0.000
    8       -0.000  -0.000   0.000  -0.000
    9        0.000   0.001  -0.008  -0.006
   10       -0.000  -0.001   0.008   0.006
   11        0.000   0.001  -0.008  -0.006
   12       -0.000  -0.001   0.008   0.006
   13        0.021   0.054   3.650   3.725
   14       -0.021  -0.054  -3.650  -3.725
   15        0.021   0.054   3.650   3.725
   16       -0.021  -0.054  -3.650  -3.725
tot         -0.000  -0.000   0.001   0.000

 BZINTS: Fermi energy:  5.070160;172.000000 electrons
         Band energy:***********;  BLOECHL correction:  0.000000
 BZINTS: Fermi energy:  5.070160;172.000000 electrons
         Band energy:***********;  BLOECHL correction:  0.000000
 BZINTS: Fermi energy:  5.070160;172.000000 electrons
         Band energy:***********;  BLOECHL correction:  0.000000
 BZINTS: Fermi energy:  5.070160;172.000000 electrons
         Band energy:***********;  BLOECHL correction:  0.000000