 vasp.5.4.4.18Apr17-6-g9f103f2a35 (build Oct 30 2023 17:30:16) complex

 executed on             LinuxIFC date 2024.06.29  18:38:22

 INCAR:
 POTCAR:    PAW_PBE S 06Sep2000
 POTCAR:     PAW_PBE Cu_pv 06Sep2000
 POTCAR:     PAW_PBE Fe_pv 02Aug2007

   TITEL  = PAW_PBE S 06Sep2000
   POMASS =   32.066; ZVAL   =    6.000    mass and valenz
   ENMAX  =  258.689; ENMIN  =  194.016 eV

   TITEL  = PAW_PBE Cu_pv 06Sep2000
   POMASS =   63.546; ZVAL   =   17.000    mass and valenz
   ENMAX  =  368.648; ENMIN  =  276.486 eV

   TITEL  = PAW_PBE Fe_pv 02Aug2007
   POMASS =   55.847; ZVAL   =   14.000    mass and valenz
   ENMAX  =  293.238; ENMIN  =  219.928 eV

  PAW_PBE S 06Sep2000                   :
   PAW_PBE Cu_pv 06Sep2000              :
   PAW_PBE Fe_pv 02Aug2007              :

 POSCAR: Fe16 Cu16 S32
  positions in direct lattice
  velocities in cartesian coordinates
 exchange correlation table for  LEXCH =       14
   RHO(1)=    0.500       N(1)  =     2000
   RHO(2)=  100.500       N(2)  =     4000

 ion  position               nearest neighbor table
   1  0.126  0.125  0.122-  37 2.26  41 2.27  61 2.27  49 2.28
   2  0.626  0.125  0.122-  38 2.26  42 2.27  62 2.27  50 2.28
   3  0.126  0.625  0.122-  39 2.26  43 2.27  63 2.27  51 2.28
   4  0.626  0.625  0.122-  40 2.26  44 2.27  64 2.27  52 2.28
   5  0.374  0.375  0.122-  39 2.26  41 2.27  62 2.27  52 2.28
   6  0.874  0.375  0.122-  40 2.26  42 2.27  61 2.27  51 2.28
   7  0.374  0.875  0.122-  37 2.26  43 2.27  64 2.27  50 2.28
   8  0.874  0.875  0.122-  38 2.26  44 2.27  63 2.27  49 2.28
   9  0.125  0.374  0.872-  41 2.26  45 2.27  51 2.27  55 2.28
  10  0.625  0.374  0.872-  42 2.26  46 2.27  52 2.27  56 2.28
  11  0.125  0.874  0.872-  43 2.26  47 2.27  49 2.27  53 2.28
  12  0.625  0.874  0.872-  44 2.26  48 2.27  50 2.27  54 2.28
  13  0.375  0.126  0.872-  41 2.26  46 2.27  50 2.27  53 2.28
  14  0.875  0.126  0.872-  42 2.26  45 2.27  49 2.27  54 2.28
  15  0.375  0.626  0.872-  43 2.26  48 2.27  52 2.27  55 2.28
  16  0.875  0.626  0.872-  44 2.26  47 2.27  51 2.27  56 2.28
  17  0.124  0.125  0.622-  45 2.26  33 2.27  53 2.27  57 2.28
  18  0.624  0.125  0.622-  46 2.26  34 2.27  54 2.27  58 2.28
  19  0.124  0.625  0.622-  47 2.26  35 2.27  55 2.27  59 2.28
  20  0.624  0.625  0.622-  48 2.26  36 2.27  56 2.27  60 2.28
  21  0.376  0.375  0.622-  46 2.26  36 2.27  55 2.27  57 2.28
  22  0.876  0.375  0.622-  45 2.26  35 2.27  56 2.27  58 2.28
  23  0.376  0.875  0.622-  48 2.26  34 2.27  53 2.27  59 2.28
  24  0.876  0.875  0.622-  47 2.26  33 2.27  54 2.27  60 2.28
  25  0.375  0.124  0.372-  34 2.26  37 2.27  57 2.27  62 2.28
  26  0.875  0.124  0.372-  33 2.26  38 2.27  58 2.27  61 2.28
  27  0.375  0.624  0.372-  36 2.26  39 2.27  59 2.27  64 2.28
  28  0.875  0.624  0.372-  35 2.26  40 2.27  60 2.27  63 2.28
  29  0.125  0.376  0.372-  35 2.26  39 2.27  57 2.27  61 2.28
  30  0.625  0.376  0.372-  36 2.26  40 2.27  58 2.27  62 2.28
  31  0.125  0.876  0.372-  33 2.26  37 2.27  59 2.27  63 2.28
  32  0.625  0.876  0.372-  34 2.26  38 2.27  60 2.27  64 2.28
  33  0.000  0.000  0.503-  26 2.26  31 2.26  17 2.27  24 2.27
  34  0.500  0.000  0.503-  25 2.26  32 2.26  18 2.27  23 2.27
  35  0.000  0.500  0.503-  28 2.26  29 2.26  19 2.27  22 2.27
  36  0.500  0.500  0.503-  27 2.26  30 2.26  20 2.27  21 2.27
  37  0.250  0.000  0.253-   1 2.26   7 2.26  25 2.27  31 2.27
  38  0.750  0.000  0.253-   2 2.26   8 2.26  26 2.27  32 2.27
  39  0.250  0.500  0.253-   3 2.26   5 2.26  27 2.27  29 2.27
  40  0.750  0.500  0.253-   4 2.26   6 2.26  28 2.27  30 2.27
  41  0.250  0.250  0.003-   9 2.26  13 2.26   1 2.27   5 2.27
  42  0.750  0.250  0.003-  10 2.26  14 2.26   2 2.27   6 2.27
  43  0.250  0.750  0.003-  11 2.26  15 2.26   3 2.27   7 2.27
  44  0.750  0.750  0.003-  12 2.26  16 2.26   4 2.27   8 2.27
  45  0.000  0.250  0.753-  17 2.26  22 2.26   9 2.27  14 2.27
  46  0.500  0.250  0.753-  18 2.26  21 2.26  10 2.27  13 2.27
  47  0.000  0.750  0.753-  19 2.26  24 2.26  11 2.27  16 2.27
  48  0.500  0.750  0.753-  20 2.26  23 2.26  12 2.27  15 2.27
  49  0.000  0.000  0.003-  11 2.27  14 2.27   1 2.28   8 2.28
  50  0.500  0.000  0.003-  12 2.27  13 2.27   2 2.28   7 2.28
  51  0.000  0.500  0.003-   9 2.27  16 2.27   3 2.28   6 2.28
  52  0.500  0.500  0.003-  10 2.27  15 2.27   4 2.28   5 2.28
  53  0.250  0.000  0.753-  17 2.27  23 2.27  11 2.28  13 2.28
  54  0.750  0.000  0.753-  18 2.27  24 2.27  12 2.28  14 2.28
  55  0.250  0.500  0.753-  19 2.27  21 2.27   9 2.28  15 2.28
  56  0.750  0.500  0.753-  20 2.27  22 2.27  10 2.28  16 2.28
  57  0.250  0.250  0.503-  25 2.27  29 2.27  17 2.28  21 2.28
  58  0.750  0.250  0.503-  26 2.27  30 2.27  18 2.28  22 2.28
  59  0.250  0.750  0.503-  27 2.27  31 2.27  19 2.28  23 2.28
  60  0.750  0.750  0.503-  28 2.27  32 2.27  20 2.28  24 2.28
  61  0.000  0.250  0.253-   1 2.27   6 2.27  26 2.28  29 2.28
  62  0.500  0.250  0.253-   2 2.27   5 2.27  25 2.28  30 2.28
  63  0.000  0.750  0.253-   3 2.27   8 2.27  28 2.28  31 2.28
  64  0.500  0.750  0.253-   4 2.27   7 2.27  27 2.28  32 2.28

  LATTYP: Found a base centered orthorhombic cell.
 ALAT       =    14.4659523457
 B/A-ratio  =     1.0537604313
 C/A-ratio  =     0.7206577037

  Lattice vectors:

 A1 = (  10.5039300000,   0.2749570000,   0.0000000000)
 A2 = (  -0.2749570000, -10.5039300000,   0.0000000000)
 A3 = (   0.0000000000,   0.0000000000, -10.4250000000)

Analysis of symmetry for initial positions (statically):
 Subroutine PRICEL returns following result:

  LATTYP: Found a face centered orthorhombic cell.
 ALAT       =     7.2329761729
 B/A-ratio  =     1.0537604313
 C/A-ratio  =     1.4413154075

[...]

   8 primitive cells build up your supercell.

 Routine SETGRP: Setting up the symmetry group for a
 base centered orthorhombic supercell.

 Subroutine GETGRP returns: Found  4 space group operations
 (whereof  2 operations were pure point group operations)
 out of a pool of  8 trial point group operations.

The static configuration has the point symmetry C_2 .
 The point group associated with its full space group is C_2v.

Analysis of symmetry for dynamics (positions and initial velocities):
 Subroutine PRICEL returns following result:

[...]

The dynamic configuration has the point symmetry C_2 .
 The point group associated with its full space group is C_2v.

Analysis of structural, dynamic, and magnetic symmetry:
 Subroutine PRICEL returns following result:

  LATTYP: Found a face centered orthorhombic cell.
 ALAT       =     7.2329761729
 B/A-ratio  =     1.0537604313
 C/A-ratio  =     1.4413154075

  Lattice vectors:

 A1 = (  -2.6947217500,  -2.6947217500,   5.2125000000)
 A2 = (  -2.5572432500,   2.5572432500,   5.2125000000)
 A3 = (  -5.2519650000,  -0.1374785000,   0.0000000000)

   8 primitive cells build up your supercell.

 Routine SETGRP: Setting up the symmetry group for a
 base centered orthorhombic supercell.

 Subroutine GETGRP returns: Found  4 space group operations
 (whereof  2 operations were pure point group operations)
 out of a pool of  8 trial point group operations.

The magnetic configuration has the point symmetry C_2 .
 The point group associated with its full space group is C_2v.

 Subroutine INISYM returns: Found  4 space group operations
 (whereof  2 operations are pure point group operations),
 and found     8 'primitive' translations

 KPOINTS: Automatic mesh

Automatic generation of k-mesh.
Space group operators:
 irot       det(A)        alpha          n_x          n_y          n_z        tau_x        tau_y        tau_z
    1     1.000000     0.000001     1.000000     0.000000     0.000000     0.000000     0.000000     0.000000
    2     1.000000   179.999999     0.000000     0.000000     1.000000     0.000000     0.000000     0.000000
    3    -1.000000   180.000000     0.707107     0.707107     0.000000    -0.750000    -0.000000     0.750000
    4    -1.000000   180.000000     0.707107    -0.707107     0.000000    -0.750000    -0.000000     0.750000

 Subroutine IBZKPT returns following result:

 Found      6 irreducible k-points:

 Following reciprocal coordinates:
            Coordinates               Weight
  0.000000  0.000000  0.000000      1.000000
  0.500000 -0.000000  0.000000      2.000000
  0.500000  0.500000  0.000000      1.000000
  0.000000  0.000000  0.500000      1.000000
  0.500000 -0.000000  0.500000      2.000000
  0.500000  0.500000  0.500000      1.000000

 Following cartesian coordinates:
            Coordinates               Weight
  0.000000  0.000000  0.000000      1.000000
  0.047634 -0.001247  0.000000      2.000000
  0.046387  0.046387  0.000000      1.000000
  0.000000  0.000000  0.047962      1.000000
  0.047634 -0.001247  0.047962      2.000000
  0.046387  0.046387  0.047962      1.000000

 TETIRR: Found     12 inequivalent tetrahedra from       48

 Subroutine IBZKPT_HF returns following result:

 Found      8 k-points in 1st BZ
 the following      8 k-points will be used (e.g. in the exchange kernel)
 Following reciprocal coordinates:   # in IRBZ
  0.000000  0.000000  0.000000    0.12500000   1 t-inv F
  0.500000 -0.000000  0.000000    0.12500000   2 t-inv F
  0.500000  0.500000  0.000000    0.12500000   3 t-inv F
  0.000000  0.000000  0.500000    0.12500000   4 t-inv F
  0.500000 -0.000000  0.500000    0.12500000   5 t-inv F
  0.500000  0.500000  0.500000    0.12500000   6 t-inv F
  0.000000 -0.500000  0.000000    0.12500000   2 t-inv F spinflp
  0.000000 -0.500000  0.500000    0.12500000   5 t-inv F spinflp

 SYSTEM =  CuFeS2
 POSCAR =  Fe16 Cu16 S32

 Startparameter for this run:
   NWRITE =      2    write-flag & timer
   PREC   = accura    normal or accurate (medium, high low for compatibility)
   ISTART =      0    job   : 0-new  1-cont  2-samecut
   ICHARG =      1    charge: 1-file 2-atom 10-const
   ISPIN  =      2    spin polarized calculation?
   LNONCOLLINEAR =      F non collinear calculations
   LSORBIT =      F    spin-orbit coupling
   INIWAV =      1    electr: 0-lowe 1-rand  2-diag
   LASPH  =      F    aspherical Exc in radial PAW
   METAGGA=      F    non-selfconsistent MetaGGA calc.

 Electronic Relaxation 1
   ENCUT  =  700.0 eV  51.45 Ry    7.17 a.u.  22.67 22.67 22.49*2*pi/ulx,y,z
   ENINI  =  700.0     initial cutoff
   ENAUG  =  758.2 eV  augmentation charge cutoff
   NELM   =    500;   NELMIN=  2; NELMDL=  0     # of ELM steps
   EDIFF  = 0.1E-07   stopping-criterion for ELM
   LREAL  =      F    real-space projection
   NLSPLINE    = F    spline interpolate recip. space projectors
   LCOMPAT=      F    compatible to vasp.4.4
   GGA_COMPAT  = T    GGA compatible to vasp.4.4-vasp.4.6
   LMAXPAW     = -100 max onsite density
   LMAXMIX     =    4 max onsite mixed and CHGCAR
   VOSKOWN=      0    Vosko Wilk Nusair interpolation
   ROPT   =    0.00000   0.00000   0.00000
 Ionic relaxation
   EDIFFG = -.1E-04   stopping-criterion for IOM
   NSW    =      0    number of steps for IOM
   NBLOCK =      1;   KBLOCK =      1    inner block; outer block
   IBRION =     -1    ionic relax: 0-MD 1-quasi-New 2-CG
   NFREE  =      0    steps in history (QN), initial steepest desc. (CG)
[...]
   0.420E+02 -.413E+00 0.162E+02   -.429E+02 0.395E+00 -.163E+02   0.859E+00 0.177E-01 0.157E+00   0.437E-04 0.154E-06 -.137E-07
   -.420E+02 0.413E+00 0.162E+02   0.429E+02 -.395E+00 -.163E+02   -.859E+00 -.177E-01 0.157E+00   -.437E-04 -.154E-06 -.137E-07
   -.420E+02 0.413E+00 0.162E+02   0.429E+02 -.395E+00 -.163E+02   -.859E+00 -.177E-01 0.157E+00   -.437E-04 -.154E-06 -.137E-07
   -.420E+02 0.413E+00 0.162E+02   0.429E+02 -.395E+00 -.163E+02   -.859E+00 -.177E-01 0.157E+00   -.437E-04 -.154E-06 -.137E-07
   -.420E+02 0.413E+00 0.162E+02   0.429E+02 -.395E+00 -.163E+02   -.859E+00 -.177E-01 0.157E+00   -.437E-04 -.154E-06 -.137E-07
   0.413E+00 -.420E+02 0.162E+02   -.395E+00 0.429E+02 -.163E+02   -.177E-01 -.859E+00 0.157E+00   -.154E-06 -.437E-04 -.137E-07
   0.413E+00 -.420E+02 0.162E+02   -.395E+00 0.429E+02 -.163E+02   -.177E-01 -.859E+00 0.157E+00   -.154E-06 -.437E-04 -.137E-07
   0.413E+00 -.420E+02 0.162E+02   -.395E+00 0.429E+02 -.163E+02   -.177E-01 -.859E+00 0.157E+00   -.154E-06 -.437E-04 -.137E-07
   0.413E+00 -.420E+02 0.162E+02   -.395E+00 0.429E+02 -.163E+02   -.177E-01 -.859E+00 0.157E+00   -.154E-06 -.437E-04 -.137E-07
   -.413E+00 0.420E+02 0.162E+02   0.395E+00 -.429E+02 -.163E+02   0.177E-01 0.859E+00 0.157E+00   0.154E-06 0.437E-04 -.137E-07
   -.413E+00 0.420E+02 0.162E+02   0.395E+00 -.429E+02 -.163E+02   0.177E-01 0.859E+00 0.157E+00   0.154E-06 0.437E-04 -.137E-07
   -.413E+00 0.420E+02 0.162E+02   0.395E+00 -.429E+02 -.163E+02   0.177E-01 0.859E+00 0.157E+00   0.154E-06 0.437E-04 -.137E-07
   -.413E+00 0.420E+02 0.162E+02   0.395E+00 -.429E+02 -.163E+02   0.177E-01 0.859E+00 0.157E+00   0.154E-06 0.437E-04 -.137E-07
   -.420E+02 0.413E+00 0.162E+02   0.429E+02 -.395E+00 -.163E+02   -.859E+00 -.177E-01 0.157E+00   -.437E-04 -.154E-06 -.137E-07
   -.420E+02 0.413E+00 0.162E+02   0.429E+02 -.395E+00 -.163E+02   -.859E+00 -.177E-01 0.157E+00   -.437E-04 -.154E-06 -.137E-07
   -.420E+02 0.413E+00 0.162E+02   0.429E+02 -.395E+00 -.163E+02   -.859E+00 -.177E-01 0.157E+00   -.437E-04 -.154E-06 -.137E-07
   -.420E+02 0.413E+00 0.162E+02   0.429E+02 -.395E+00 -.163E+02   -.859E+00 -.177E-01 0.157E+00   -.437E-04 -.154E-06 -.137E-07
   0.420E+02 -.413E+00 0.162E+02   -.429E+02 0.395E+00 -.163E+02   0.859E+00 0.177E-01 0.157E+00   0.437E-04 0.154E-06 -.137E-07
   0.420E+02 -.413E+00 0.162E+02   -.429E+02 0.395E+00 -.163E+02   0.859E+00 0.177E-01 0.157E+00   0.437E-04 0.154E-06 -.137E-07
   0.420E+02 -.413E+00 0.162E+02   -.429E+02 0.395E+00 -.163E+02   0.859E+00 0.177E-01 0.157E+00   0.437E-04 0.154E-06 -.137E-07
   0.420E+02 -.413E+00 0.162E+02   -.429E+02 0.395E+00 -.163E+02   0.859E+00 0.177E-01 0.157E+00   0.437E-04 0.154E-06 -.137E-07
   0.413E+00 -.420E+02 0.162E+02   -.395E+00 0.429E+02 -.163E+02   -.177E-01 -.859E+00 0.157E+00   -.154E-06 -.437E-04 -.137E-07
   0.413E+00 -.420E+02 0.162E+02   -.395E+00 0.429E+02 -.163E+02   -.177E-01 -.859E+00 0.157E+00   -.154E-06 -.437E-04 -.137E-07
   0.413E+00 -.420E+02 0.162E+02   -.395E+00 0.429E+02 -.163E+02   -.177E-01 -.859E+00 0.157E+00   -.154E-06 -.437E-04 -.137E-07
   0.413E+00 -.420E+02 0.162E+02   -.395E+00 0.429E+02 -.163E+02   -.177E-01 -.859E+00 0.157E+00   -.154E-06 -.437E-04 -.137E-07
   -.413E+00 0.420E+02 0.162E+02   0.395E+00 -.429E+02 -.163E+02   0.177E-01 0.859E+00 0.157E+00   0.154E-06 0.437E-04 -.137E-07
   -.413E+00 0.420E+02 0.162E+02   0.395E+00 -.429E+02 -.163E+02   0.177E-01 0.859E+00 0.157E+00   0.154E-06 0.437E-04 -.137E-07
   -.413E+00 0.420E+02 0.162E+02   0.395E+00 -.429E+02 -.163E+02   0.177E-01 0.859E+00 0.157E+00   0.154E-06 0.437E-04 -.137E-07
   -.413E+00 0.420E+02 0.162E+02   0.395E+00 -.429E+02 -.163E+02   0.177E-01 0.859E+00 0.157E+00   0.154E-06 0.437E-04 -.137E-07
   -.113E-06 0.858E-07 -.189E+02   -.862E-13 0.135E-12 0.182E+02   0.792E-25 0.258E-25 0.768E+00   0.451E-11 0.125E-11 -.172E-04
   -.113E-06 0.858E-07 -.189E+02   -.293E-13 0.142E-12 0.182E+02   -.493E-25 0.149E-24 0.768E+00   -.488E-11 0.133E-11 -.172E-04
   -.113E-06 0.859E-07 -.189E+02   -.577E-13 0.156E-12 0.182E+02   0.396E-25 -.155E-24 0.768E+00   0.452E-11 -.159E-11 -.172E-04
   -.113E-06 0.858E-07 -.189E+02   -.577E-13 0.171E-12 0.182E+02   0.137E-24 0.155E-24 0.768E+00   -.452E-11 -.619E-12 -.172E-04
   0.858E-07 -.113E-06 -.189E+02   0.114E-12 -.568E-13 0.182E+02   0.136E-24 -.155E-24 0.768E+00   -.114E-11 0.105E-11 -.172E-04
   0.859E-07 -.113E-06 -.189E+02   0.114E-12 -.568E-13 0.182E+02   0.725E-25 0.349E-24 0.768E+00   0.135E-11 0.878E-12 -.172E-04
   0.858E-07 -.113E-06 -.189E+02   0.171E-12 0.000E+00 0.182E+02   0.197E-24 0.207E-24 0.768E+00   -.620E-13 -.154E-11 -.172E-04
   0.859E-07 -.113E-06 -.189E+02   0.171E-12 0.568E-13 0.182E+02   -.173E-24 -.258E-25 0.768E+00   0.103E-11 -.192E-11 -.172E-04
   -.113E-06 0.858E-07 -.189E+02   0.000E+00 0.471E-13 0.182E+02   0.307E-25 -.103E-24 0.768E+00   -.359E-11 -.163E-11 -.172E-04
   -.113E-06 0.858E-07 -.189E+02   -.284E-13 0.613E-13 0.182E+02   0.191E-24 0.897E-25 0.768E+00   0.357E-11 -.179E-11 -.172E-04
   -.113E-06 0.859E-07 -.189E+02   -.284E-13 0.275E-13 0.182E+02   0.210E-25 0.207E-24 0.768E+00   -.350E-11 0.175E-11 -.172E-04
   -.113E-06 0.859E-07 -.189E+02   -.284E-13 -.222E-13 0.182E+02   -.172E-24 -.614E-25 0.768E+00   0.316E-11 0.155E-11 -.172E-04
   0.858E-07 -.113E-06 -.189E+02   0.198E-12 -.172E-12 0.182E+02   -.286E-24 0.646E-26 0.768E+00   0.204E-11 -.117E-11 -.172E-04
   0.859E-07 -.113E-06 -.189E+02   0.173E-12 -.172E-12 0.182E+02   0.249E-24 0.258E-25 0.768E+00   -.195E-11 -.144E-11 -.172E-04
   0.858E-07 -.113E-06 -.189E+02   0.141E-12 -.112E-12 0.182E+02   0.159E-24 -.129E-25 0.768E+00   0.272E-11 0.116E-11 -.172E-04
   0.859E-07 -.113E-06 -.189E+02   0.144E-12 -.169E-12 0.182E+02   -.404E-26 0.258E-25 0.768E+00   -.265E-11 0.450E-12 -.172E-04
   0.609E-07 -.667E-07 -.154E+02   -.122E-12 0.195E-12 0.144E+02   -.848E-25 -.517E-24 0.914E+00   -.248E-11 0.904E-12 -.159E-04
   0.609E-07 -.667E-07 -.154E+02   -.755E-13 0.171E-12 0.144E+02   -.727E-26 0.103E-24 0.914E+00   0.189E-11 0.723E-12 -.159E-04
   0.609E-07 -.667E-07 -.154E+02   -.933E-13 0.160E-12 0.144E+02   -.171E-24 0.239E-24 0.914E+00   -.254E-11 -.715E-12 -.159E-04
   0.609E-07 -.667E-07 -.154E+02   -.755E-13 0.995E-13 0.144E+02   0.889E-25 -.103E-24 0.914E+00   0.218E-11 -.744E-12 -.159E-04
   -.667E-07 0.609E-07 -.154E+02   0.497E-13 -.995E-13 0.144E+02   0.141E-24 -.258E-25 0.914E+00   -.608E-12 0.608E-12 -.159E-04
   -.667E-07 0.609E-07 -.154E+02   0.711E-13 -.995E-13 0.144E+02   -.129E-24 -.129E-25 0.914E+00   0.601E-12 0.117E-11 -.159E-04
   -.667E-07 0.609E-07 -.154E+02   0.249E-13 -.171E-12 0.144E+02   0.420E-25 0.905E-25 0.914E+00   -.539E-12 -.730E-12 -.159E-04
   -.667E-07 0.609E-07 -.154E+02   0.711E-13 -.171E-12 0.144E+02   0.244E-24 0.103E-24 0.914E+00   0.532E-12 -.114E-11 -.159E-04
   0.609E-07 -.667E-07 -.154E+02   -.156E-12 0.150E-12 0.144E+02   0.606E-25 -.155E-24 0.914E+00   0.139E-11 -.122E-11 -.159E-04
   0.609E-07 -.667E-07 -.154E+02   -.853E-13 0.175E-12 0.144E+02   -.929E-25 -.103E-24 0.914E+00   -.161E-11 -.751E-12 -.159E-04
   0.609E-07 -.667E-07 -.154E+02   -.185E-12 0.179E-12 0.144E+02   -.590E-25 0.258E-25 0.914E+00   0.160E-11 0.899E-12 -.159E-04
   0.609E-07 -.667E-07 -.154E+02   -.142E-12 0.183E-12 0.144E+02   -.460E-25 0.517E-25 0.914E+00   -.200E-11 0.864E-12 -.159E-04
   -.667E-07 0.609E-07 -.154E+02   -.224E-13 -.182E-12 0.144E+02   0.832E-25 0.181E-24 0.914E+00   -.920E-12 -.156E-11 -.159E-04
   -.667E-07 0.608E-07 -.154E+02   -.740E-14 -.183E-12 0.144E+02   0.969E-25 0.103E-24 0.914E+00   0.800E-12 -.146E-11 -.159E-04
   -.667E-07 0.609E-07 -.154E+02   -.208E-13 -.117E-12 0.144E+02   0.291E-25 -.517E-25 0.914E+00   -.510E-12 0.140E-11 -.159E-04
   -.667E-07 0.609E-07 -.154E+02   0.846E-14 -.117E-12 0.144E+02   -.170E-24 0.103E-24 0.914E+00   0.341E-12 0.131E-11 -.159E-04
   -.205E-06 -.205E-06 -.319E+02   -.570E-12 0.867E-14 0.291E-12   0.113E-14 0.666E-15 0.319E+02   -.500E-12 -.301E-11 -.530E-03

 POSITION                                       TOTAL-FORCE (eV/Angst)
      1.35926      1.35086      1.27288         0.001642     -0.000700     -0.002869
      6.61123      1.48834      1.27288         0.001642     -0.000700     -0.002869
      1.49674      6.60283      1.27288         0.001642     -0.000700     -0.002869
      6.74870      6.74031      1.27288         0.001642     -0.000700     -0.002869
      4.03018      4.03858      1.27288        -0.001642      0.000700     -0.002869
      9.28215      4.17606      1.27288        -0.001642      0.000700     -0.002869
      4.16766      9.29055      1.27288        -0.001642      0.000700     -0.002869
      9.41963      9.42802      1.27288        -0.001642      0.000700     -0.002869
      1.41260      3.96144      9.09163         0.000700     -0.001642     -0.002869
      6.66456      4.09892      9.09163         0.000700     -0.001642     -0.002869
      1.55008      9.21341      9.09163         0.000700     -0.001642     -0.002869
      6.80204      9.35089      9.09163         0.000700     -0.001642     -0.002869
      3.97685      1.42800      9.09163        -0.000700      0.001642     -0.002869
      9.22881      1.56548      9.09163        -0.000700      0.001642     -0.002869
      4.11432      6.67997      9.09163        -0.000700      0.001642     -0.002869
      9.36629      6.81744      9.09163        -0.000700      0.001642     -0.002869
      1.33546      1.34386      6.48538        -0.001642      0.000700     -0.002869
      6.58743      1.48134      6.48538        -0.001642      0.000700     -0.002869
      1.47294      6.59582      6.48538        -0.001642      0.000700     -0.002869
      6.72490      6.73330      6.48538        -0.001642      0.000700     -0.002869
      4.05398      4.04559      6.48538         0.001642     -0.000700     -0.002869
      9.30595      4.18306      6.48538         0.001642     -0.000700     -0.002869
      4.19146      9.29755      6.48538         0.001642     -0.000700     -0.002869
      9.44343      9.43503      6.48538         0.001642     -0.000700     -0.002869
      3.96984      1.40420      3.87913         0.000700     -0.001642     -0.002869
      9.22181      1.54168      3.87913         0.000700     -0.001642     -0.002869
      4.10732      6.65616      3.87913         0.000700     -0.001642     -0.002869
      9.35928      6.79364      3.87913         0.000700     -0.001642     -0.002869
      1.41960      3.98524      3.87913        -0.000700      0.001642     -0.002869
      6.67157      4.12272      3.87913        -0.000700      0.001642     -0.002869
      1.55708      9.23721      3.87913        -0.000700      0.001642     -0.002869
      6.80905      9.37469      3.87913        -0.000700      0.001642     -0.002869
      0.00000      0.00000      5.23873         0.000000     -0.000000      0.000690
      5.25197      0.13748      5.23873         0.000000     -0.000000      0.000690
      0.13748      5.25197      5.23873         0.000000     -0.000000      0.000690
      5.38944      5.38944      5.23873         0.000000     -0.000000      0.000690
      2.62598      0.06874      2.63248         0.000000     -0.000000      0.000690
      7.87795      0.20622      2.63248         0.000000     -0.000000      0.000690
      2.76346      5.32070      2.63248         0.000000     -0.000000      0.000690
      8.01543      5.45818      2.63248         0.000000     -0.000000      0.000690
      2.69472      2.69472      0.02623         0.000000     -0.000000      0.000690
      7.94669      2.83220      0.02623         0.000000     -0.000000      0.000690
      2.83220      7.94669      0.02623         0.000000     -0.000000      0.000690
      8.08417      8.08417      0.02623         0.000000     -0.000000      0.000690
      0.06874      2.62598      7.84498         0.000000     -0.000000      0.000690
      5.32070      2.76346      7.84498         0.000000     -0.000000      0.000690
      0.20622      7.87795      7.84498         0.000000     -0.000000      0.000690
      5.45818      8.01543      7.84498         0.000000     -0.000000      0.000690
      0.00000      0.00000      0.03425         0.000000     -0.000000      0.005048
      5.25197      0.13748      0.03425         0.000000     -0.000000      0.005048
      0.13748      5.25197      0.03425         0.000000     -0.000000      0.005048
      5.38944      5.38944      0.03425         0.000000     -0.000000      0.005048
      2.62598      0.06874      7.85300         0.000000     -0.000000      0.005048
      7.87795      0.20622      7.85300         0.000000     -0.000000      0.005048
      2.76346      5.32070      7.85300         0.000000     -0.000000      0.005048
      8.01543      5.45818      7.85300         0.000000     -0.000000      0.005048
      2.69472      2.69472      5.24675         0.000000     -0.000000      0.005048
      7.94669      2.83220      5.24675         0.000000     -0.000000      0.005048
      2.83220      7.94669      5.24675         0.000000     -0.000000      0.005048
      8.08417      8.08417      5.24675         0.000000     -0.000000      0.005048
      0.06874      2.62598      2.64050         0.000000     -0.000000      0.005048
      5.32070      2.76346      2.64050         0.000000     -0.000000      0.005048
      0.20622      7.87795      2.64050         0.000000     -0.000000      0.005048
      5.45818      8.01543      2.64050         0.000000     -0.000000      0.005048
    total drift:                               -0.000000     -0.000000     -0.001510

  FREE ENERGIE OF THE ION-ELECTRON SYSTEM (eV)
  free  energy   TOTEN  =      -327.83119435 eV

  energy  without entropy=     -327.83119435  energy(sigma->0) =     -327.83119435

 writing wavefunctions

 total charge

[...]

 magnetization (x)

# of ion       s       p       d       tot
    1       -0.001  -0.013   0.000  -0.013
    2       -0.001  -0.013   0.000  -0.013
    3       -0.001  -0.013   0.000  -0.013
    4       -0.001  -0.013   0.000  -0.013
    5       -0.001  -0.013   0.000  -0.013
    6       -0.001  -0.013   0.000  -0.013
    7       -0.001  -0.013   0.000  -0.013
    8       -0.001  -0.013   0.000  -0.013
    9        0.001   0.013   0.000   0.013
   10        0.001   0.013   0.000   0.013
   11        0.001   0.013   0.000   0.013
   12        0.001   0.013   0.000   0.013
   13        0.001   0.013   0.000   0.013
   14        0.001   0.013   0.000   0.013
   15        0.001   0.013   0.000   0.013
   16        0.001   0.013   0.000   0.013
   17       -0.001  -0.013   0.000  -0.013
   18       -0.001  -0.013   0.000  -0.013
   19       -0.001  -0.013   0.000  -0.013
   20       -0.001  -0.013   0.000  -0.013
   21       -0.001  -0.013   0.000  -0.013
   22       -0.001  -0.013   0.000  -0.013
   23       -0.001  -0.013   0.000  -0.013
   24       -0.001  -0.013   0.000  -0.013
   25        0.001   0.013   0.000   0.013
   26        0.001   0.013   0.000   0.013
   27        0.001   0.013   0.000   0.013
   28        0.001   0.013   0.000   0.013
   29        0.001   0.013   0.000   0.013
   30        0.001   0.013   0.000   0.013
   31        0.001   0.013   0.000   0.013
   32        0.001   0.013   0.000   0.013
   33        0.000   0.000   0.000   0.001
   34        0.000   0.000   0.000   0.001
   35        0.000   0.000   0.000   0.001
   36        0.000   0.000   0.000   0.001
   37       -0.000  -0.000  -0.000  -0.001
   38       -0.000  -0.000  -0.000  -0.001
   39       -0.000  -0.000  -0.000  -0.001
   40       -0.000  -0.000  -0.000  -0.001
   41        0.000   0.000   0.000   0.001
   42        0.000   0.000   0.000   0.001
   43        0.000   0.000   0.000   0.001
   44        0.000   0.000   0.000   0.001
   45       -0.000  -0.000  -0.000  -0.001
   46       -0.000  -0.000  -0.000  -0.001
   47       -0.000  -0.000  -0.000  -0.001
   48       -0.000  -0.000  -0.000  -0.001
   49        0.020   0.054   3.670   3.743
   50        0.020   0.054   3.670   3.743
   51        0.020   0.054   3.670   3.743
   52        0.020   0.054   3.670   3.743
   53       -0.020  -0.054  -3.670  -3.743
   54       -0.020  -0.054  -3.670  -3.743
   55       -0.020  -0.054  -3.670  -3.743
   56       -0.020  -0.054  -3.670  -3.743
   57        0.020   0.054   3.670   3.743
   58        0.020   0.054   3.670   3.743
   59        0.020   0.054   3.670   3.743
   60        0.020   0.054   3.670   3.743
   61       -0.020  -0.054  -3.670  -3.743
   62       -0.020  -0.054  -3.670  -3.743
   63       -0.020  -0.054  -3.670  -3.743
   64       -0.020  -0.054  -3.670  -3.743
tot         -0.001   0.001  -0.001  -0.001

 BZINTS: Fermi energy:  4.940143;688.000000 electrons
         Band energy:***********;  BLOECHL correction:  0.000000