 vasp.5.4.4.18Apr17-6-g9f103f2a35 (build Sep 28 2018 10:11:46) complex

 executed on             LinuxIFC date 2022.10.06  20:53:55

 INCAR:
 POTCAR:    PAW_PBE S 06Sep2000
 POTCAR:     PAW_PBE Cu_pv 06Sep2000
 POTCAR:     PAW_PBE Fe_pv 02Aug2007

   TITEL  = PAW_PBE S 06Sep2000
   POMASS =   32.066; ZVAL   =    6.000    mass and valenz
   ENMAX  =  258.689; ENMIN  =  194.016 eV

   TITEL  = PAW_PBE Cu_pv 06Sep2000
   POMASS =   63.546; ZVAL   =   17.000    mass and valenz
   ENMAX  =  368.648; ENMIN  =  276.486 eV

   TITEL  = PAW_PBE Fe_pv 02Aug2007
   POMASS =   55.847; ZVAL   =   14.000    mass and valenz
   ENMAX  =  293.238; ENMIN  =  219.928 eV

  PAW_PBE S 06Sep2000                   :
   PAW_PBE Cu_pv 06Sep2000              :
   PAW_PBE Fe_pv 02Aug2007              :

 POSCAR: sm_isp_SD0310437-standardized_unitcell
  positions in direct lattice
  velocities in cartesian coordinates
 exchange correlation table for  LEXCH =       14
   RHO(1)=    0.500       N(1)  =     2000
   RHO(2)=  100.500       N(2)  =     4000

 ion  position               nearest neighbor table
   1  0.252  0.250  0.125-  10 2.26  11 2.26  13 2.28  16 2.28
   2  0.748  0.750  0.125-  10 2.26  11 2.26  13 2.28  16 2.28
   3  0.250  0.748  0.875-  11 2.26  12 2.26  13 2.28  14 2.28
   4  0.750  0.252  0.875-  11 2.26  12 2.26  13 2.28  14 2.28
   5  0.248  0.250  0.625-   9 2.26  12 2.26  14 2.28  15 2.28
   6  0.752  0.750  0.625-   9 2.26  12 2.26  14 2.28  15 2.28
   7  0.750  0.248  0.375-   9 2.26  10 2.26  15 2.28  16 2.28
   8  0.250  0.752  0.375-   9 2.26  10 2.26  15 2.28  16 2.28
   9  0.000  0.000  0.500-   5 2.26   7 2.26   6 2.26   8 2.26
  10  0.500  0.000  0.250-   7 2.26   1 2.26   2 2.26   8 2.26
  11  0.500  0.500  0.000-   1 2.26   4 2.26   3 2.26   2 2.26
  12  0.000  0.500  0.750-   5 2.26   4 2.26   3 2.26   6 2.26
  13  0.000  0.000  0.000-   2 2.28   3 2.28   1 2.28   4 2.28
  14  0.500  0.000  0.750-   3 2.28   6 2.28   4 2.28   5 2.28
  15  0.500  0.500  0.500-   6 2.28   8 2.28   7 2.28   5 2.28
  16  0.000  0.500  0.250-   2 2.28   8 2.28   1 2.28   7 2.28

  LATTYP: Found a simple tetragonal cell.
 ALAT       =     5.2587856555
 C/A-ratio  =     1.9792277963

  Lattice vectors:

 A1 = (   5.2587856555,   0.0000000000,   0.0000000000)
 A2 = (   0.0000000000,   5.2587856555,   0.0000000000)
 A3 = (   0.0000000000,   0.0000000000,  10.4083347443)

Analysis of symmetry for initial positions (statically):
 Subroutine PRICEL returns following result:

  LATTYP: Found a body centered tetragonal cell.
 ALAT       =     5.2587856555
 C/A-ratio  =     1.9792277963

[...]

   2 primitive cells build up your supercell.

 Routine SETGRP: Setting up the symmetry group for a
 simple tetragonal supercell.

 Subroutine GETGRP returns: Found  8 space group operations
 (whereof  4 operations were pure point group operations)
 out of a pool of 16 trial point group operations.

The static configuration has the point symmetry S_4 .
 The point group associated with its full space group is D_2d.

Analysis of symmetry for dynamics (positions and initial velocities):
 Subroutine PRICEL returns following result:

[...]

The dynamic configuration has the point symmetry S_4 .
 The point group associated with its full space group is D_2d.

Analysis of structural, dynamic, and magnetic symmetry:
 Subroutine PRICEL returns following result:

  LATTYP: Found a body centered tetragonal cell.
 ALAT       =     5.2587856555
 C/A-ratio  =     1.9792277963

  Lattice vectors:

 A1 = (   2.6293928278,  -2.6293928278,   5.2041673722)
 A2 = (  -2.6293928278,   2.6293928278,   5.2041673722)
 A3 = (  -2.6293928278,  -2.6293928278,  -5.2041673722)

   2 primitive cells build up your supercell.

 Routine SETGRP: Setting up the symmetry group for a
 simple tetragonal supercell.

 Subroutine GETGRP returns: Found  8 space group operations
 (whereof  4 operations were pure point group operations)
 out of a pool of 16 trial point group operations.

The (compounded) configuration has the point symmetry S_4 .
 The point group associated with its full space group is D_2d.

 Subroutine INISYM returns: Found  8 space group operations
 (whereof  4 operations are pure point group operations),
 and found     2 'primitive' translations

 KPOINTS: Automatic mesh

Automatic generation of k-mesh.
Space group operators:
 irot       det(A)        alpha          n_x          n_y          n_z        tau_x        tau_y        tau_z
    1     1.000000     0.000001     1.000000     0.000000     0.000000     0.000000     0.000000     0.000000
    2    -1.000000    90.000000     0.000000     0.000000    -1.000000     0.000000     0.000000     0.000000
    3     1.000000   180.000000     0.000000     0.000000     1.000000     0.000000     0.000000     0.000000
    4    -1.000000    90.000000     0.000000     0.000000     1.000000     0.000000     0.000000     0.000000
    5     1.000000   179.999999     0.000000     1.000000     0.000000     0.000000    -0.500000     0.250000
    6    -1.000000   179.999999     0.707107     0.707107     0.000000     0.000000    -0.500000     0.250000
    7     1.000000   179.999999     1.000000     0.000000     0.000000     0.000000    -0.500000     0.250000
    8    -1.000000   179.999999     0.707107    -0.707107     0.000000     0.000000    -0.500000     0.250000

 Subroutine IBZKPT returns following result:

 Found     23 irreducible k-points:

 Following reciprocal coordinates:
            Coordinates               Weight
  0.000000  0.000000  0.000000      1.000000
  0.166667  0.000000  0.000000      4.000000
  0.333333  0.000000  0.000000      4.000000
  0.500000  0.000000  0.000000      2.000000
  0.166667  0.166667  0.000000      4.000000
  0.333333  0.166667  0.000000      8.000000
  0.500000  0.166667  0.000000      4.000000
  0.333333  0.333333  0.000000      4.000000
  0.500000  0.333333  0.000000      4.000000
  0.500000  0.500000  0.000000      1.000000
  0.000000  0.000000  0.333333      2.000000
  0.166667  0.000000  0.333333      8.000000
  0.333333  0.000000  0.333333      8.000000
  0.500000  0.000000  0.333333      4.000000
  0.166667  0.166667  0.333333      4.000000
  0.333333  0.166667  0.333333      8.000000
  0.500000  0.166667  0.333333      8.000000
 -0.333333  0.166667  0.333333      8.000000
 -0.166667  0.166667  0.333333      4.000000
  0.333333  0.333333  0.333333      4.000000
  0.500000  0.333333  0.333333      8.000000
 -0.333333  0.333333  0.333333      4.000000
  0.500000  0.500000  0.333333      2.000000

 Following cartesian coordinates:
            Coordinates               Weight
  0.000000  0.000000  0.000000      1.000000
  0.031693  0.000000  0.000000      4.000000
  0.063386  0.000000  0.000000      4.000000
  0.095079  0.000000  0.000000      2.000000
  0.031693  0.031693  0.000000      4.000000
  0.063386  0.031693  0.000000      8.000000
  0.095079  0.031693  0.000000      4.000000
  0.063386  0.063386  0.000000      4.000000
  0.095079  0.063386  0.000000      4.000000
  0.095079  0.095079  0.000000      1.000000
  0.000000  0.000000  0.032026      2.000000
  0.031693  0.000000  0.032026      8.000000
  0.063386  0.000000  0.032026      8.000000
  0.095079  0.000000  0.032026      4.000000
  0.031693  0.031693  0.032026      4.000000
  0.063386  0.031693  0.032026      8.000000
  0.095079  0.031693  0.032026      8.000000
 -0.063386  0.031693  0.032026      8.000000
 -0.031693  0.031693  0.032026      4.000000
  0.063386  0.063386  0.032026      4.000000
  0.095079  0.063386  0.032026      8.000000
 -0.063386  0.063386  0.032026      4.000000
  0.095079  0.095079  0.032026      2.000000

 TETIRR: Found    274 inequivalent tetrahedra from      648

 SYSTEM =  CuFeS2
 POSCAR =  sm_isp_SD0310437-standardized_unitcell

 Startparameter for this run:
   NWRITE =      2    write-flag & timer
   PREC   = accura    normal or accurate (medium, high low for compatibility)
   ISTART =      1    job   : 0-new  1-cont  2-samecut
   ICHARG =      1    charge: 1-file 2-atom 10-const
   ISPIN  =      1    spin polarized calculation?
   LNONCOLLINEAR =      T non collinear calculations
   LSORBIT =      F    spin-orbit coupling
   INIWAV =      1    electr: 0-lowe 1-rand  2-diag
   LASPH  =      T    aspherical Exc in radial PAW
   METAGGA=      F    non-selfconsistent MetaGGA calc.

 Electronic Relaxation 1
   ENCUT  =  700.0 eV  51.45 Ry    7.17 a.u.  11.34 11.34 22.45*2*pi/ulx,y,z
   ENINI  =  700.0     initial cutoff
   ENAUG  =  758.2 eV  augmentation charge cutoff
   NELM   =    200;   NELMIN=  2; NELMDL=  0     # of ELM steps
   EDIFF  = 0.1E-07   stopping-criterion for ELM
   LREAL  =      F    real-space projection
   NLSPLINE    = F    spline interpolate recip. space projectors
   LCOMPAT=      F    compatible to vasp.4.4
   GGA_COMPAT  = T    GGA compatible to vasp.4.4-vasp.4.6
   LMAXPAW     = -100 max onsite density
   LMAXMIX     =    4 max onsite mixed and CHGCAR
   VOSKOWN=      0    Vosko Wilk Nusair interpolation
   ROPT   =    0.00000   0.00000   0.00000
 Ionic relaxation
   EDIFFG = -.1E-04   stopping-criterion for IOM
   NSW    =      0    number of steps for IOM
   NBLOCK =      1;   KBLOCK =      1    inner block; outer block
   IBRION =     -1    ionic relax: 0-MD 1-quasi-New 2-CG
   NFREE  =      0    steps in history (QN), initial steepest desc. (CG)
   ISIF   =      2    stress and relaxation
   IWAVPR =     10    prediction:  0-non 1-charg 2-wave 3-comb
   ISYM   =      2    0-nonsym 1-usesym 2-fastsym
   LCORR  =      T    Harris-Foulkes like correction to forces

   POTIM  = 0.2000    time-step for ionic-motion
   TEIN   =    0.0    initial temperature
   TEBEG  =    0.0;   TEEND  =   0.0 temperature during run
   SMASS  =  -3.00    Nose mass-parameter (am)
   estimated Nose-frequenzy (Omega)   =  0.10E-29 period in steps =****** mass=  -0.632E-27a.u.
   SCALEE = 1.0000    scale energy and forces
   NPACO  =    256;   APACO  = 16.0  distance and # of slots for P.C.
   PSTRESS=    0.0 pullay stress

  Mass of Ions in am
   POMASS =  32.07 63.55 55.85
  Ionic Valenz
   ZVAL   =   6.00 17.00 14.00
  Atomic Wigner-Seitz radii
  virtual crystal weights
   VCA    =   1.00  1.00  1.00
   NELECT =     172.0000    total number of electrons
   NUPDOWN=      -1.0000    fix difference up-down

 DOS related values:
   EMIN   =  10.00;   EMAX   =-10.00  energy-range for DOS
   EFERMI =   0.00
   ISMEAR =    -5;   SIGMA  =   0.03  broadening in eV -4-tet -1-fermi 0-gaus

 Electronic relaxation 2 (details)
   IALGO  =     38    algorithm
   LDIAG  =      T    sub-space diagonalisation (order eigenvalues)
   LSUBROT=      F    optimize rotation matrix (better conditioning)
   TURBO    =      0    0=normal 1=particle mesh
   IRESTART =      0    0=no restart 2=restart with 2 vectors
   NREBOOT  =      0    no. of reboots
   NMIN     =      0    reboot dimension
   EREF     =   0.00    reference energy to select bands
   IMIX   =      4    mixing-type and parameters
     AMIX     =   0.40;   BMIX     =  1.00
     AMIX_MAG =   1.60;   BMIX_MAG =  1.00
     AMIN     =   0.10
     WC   =   100.;   INIMIX=   1;  MIXPRE=   1;  MAXMIX= -45

 Intra band minimization:
[...]
  Solvation  Ediel_sol  =         0.00000000
  free energy    TOTEN  =       -82.06499891 eV

  energy without entropy =      -82.06499891  energy(sigma->0) =      -82.06499891

[...]

 eigenvalue-minimisations  :  8390
 total energy-change (2. order) : 0.2720084E-05  (-0.1891796E-06)
 number of electron     172.0000107 magnetization      -0.0000000      0.0000000     -0.0000000
 augmentation part       70.5571335 magnetization      -0.0000000      0.0000000     -0.0000000

[...]

 eigenvalues of (default mixing * dielectric matrix)
  average eigenvalue GAMMA=   0.0877
  0.0877

[...]

 total charge

# of ion       s       p       d       tot
    1        1.313   2.411   0.000   3.724
    2        1.313   2.410   0.000   3.723
    3        1.314   2.410   0.000   3.723
    4        1.314   2.409   0.000   3.723
    5        1.313   2.410   0.000   3.723
    6        1.313   2.411   0.000   3.724
    7        1.314   2.410   0.000   3.723
    8        1.314   2.409   0.000   3.723
    9        0.260   6.202   8.916  15.378
   10        0.260   6.202   8.916  15.378
   11        0.260   6.202   8.916  15.378
   12        0.260   6.202   8.916  15.378
   13        0.350   6.351   5.821  12.522
   14        0.350   6.351   5.821  12.521
   15        0.350   6.351   5.821  12.522
   16        0.350   6.351   5.821  12.521
tot         12.946  69.492  58.949 141.387

 magnetization (x)

[...]

 magnetization (y)

[...]

 magnetization (z)

[...]

 eigenvalue-minimisations  :  8332
 total energy-change (2. order) : 0.1664812E-06  (-0.3892945E-08)
 number of electron     172.0000107 magnetization       0.0000000     -0.0000000     -0.0000000
 augmentation part       70.5571312 magnetization       0.0000000     -0.0000000     -0.0000000

[...]

 Broyden mixing:
  rms(total) = 0.14467E-04    rms(broyden)= 0.14467E-04
  rms(prec ) = 0.14468E-04
  weight for this iteration     100.00

 eigenvalues of (default mixing * dielectric matrix)
  average eigenvalue GAMMA=   0.0762
  0.3696  0.2943  0.1678  0.2283  0.2283  0.1767  0.1767  0.1570  0.1167  0.0778
  0.0778  0.0898  0.0898  0.0688  0.0688  0.0789  0.0226  0.0548  0.0548  0.0286
  0.0286  0.0654  0.0540  0.0540  0.0226  0.0226  0.0053  0.0053  0.0022  0.0047
  0.0047  0.0098  0.0098  0.0533  0.0224  0.0224  0.0309  0.0309  0.0301  0.0390
  0.0390  0.0456  0.0461

[...]

--------------------------------------- Iteration      1(  65)  ---------------------------------------

 BZINTS: Fermi energy:  4.852580;172.000000 electrons
         Band energy:***********;  BLOECHL correction:  0.000000

[...]

 eigenvalue-minimisations  :  8388
 total energy-change (2. order) :-0.2593879E-08  (-0.4814205E-08)
 number of electron     172.0000107 magnetization       0.0000000     -0.0000000     -0.0000000
 augmentation part       70.5571311 magnetization       0.0000000     -0.0000000     -0.0000000

 Free energy of the ion-electron system (eV)
  alpha Z        PSCENC =       588.68295422
  Ewald energy   TEWEN  =    -15613.51431849
  -Hartree energ DENC   =    -10741.13195437
  -exchange      EXHF   =         0.00000000
  -V(xc)+E(xc)   XCENC  =       821.62058823
  PAW double counting   =     28066.91160891   -28990.37537000
  entropy T*S    EENTRO =         0.00000000
  eigenvalues    EBANDS =     -2719.27478299
  atomic energy  EATOM  =     28505.01627691
  Solvation  Ediel_sol  =         0.00000000
  free energy    TOTEN  =       -82.06499758 eV

  energy without entropy =      -82.06499758  energy(sigma->0) =      -82.06499758

 average (electrostatic) potential at core
  the test charge radii are     0.9698  0.8297  0.9500
  (the norm of the test charge is              1.0000)
       1 -86.6293       2 -86.6293       3 -86.6293       4 -86.6293       5 -86.6293
       6 -86.6293       7 -86.6293       8 -86.6293       9 -80.7060      10 -80.7060
      11 -80.7060      12 -80.7060      13 -80.2213      14 -80.2213      15 -80.2213
      16 -80.2213

 E-fermi :   4.8526     XC(G=0): -10.4630     alpha+bet :-10.5400

 k-point     1 :       0.0000    0.0000    0.0000
  band No.  band energies     occupation
      1     -64.3079      1.00000
      2     -64.3079      1.00000
      3     -64.3079      1.00000
      4     -64.3079      1.00000
      5     -64.2907      1.00000
      6     -64.2907      1.00000
      7     -64.2907      1.00000
      8     -64.2907      1.00000
      9     -64.2793      1.00000
     10     -64.2793      1.00000
     11     -64.2793      1.00000
     12     -64.2793      1.00000
     13     -64.2793      1.00000
     14     -64.2793      1.00000
     15     -64.2793      1.00000
     16     -64.2793      1.00000
     17     -64.2709      1.00000
     18     -64.2709      1.00000
     19     -64.2709      1.00000
     20     -64.2709      1.00000
     21     -64.2709      1.00000
     22     -64.2709      1.00000
     23     -64.2709      1.00000
     24     -64.2709      1.00000
     25     -51.8769      1.00000
     26     -51.8769      1.00000
     27     -51.8769      1.00000
     28     -51.8769      1.00000
     29     -51.8407      1.00000
     30     -51.8407      1.00000
     31     -51.8407      1.00000
     32     -51.8407      1.00000
     33     -51.8407      1.00000
     34     -51.8407      1.00000
     35     -51.8407      1.00000
     36     -51.8407      1.00000
     37     -47.7251      1.00000
     38     -47.7251      1.00000
     39     -47.7251      1.00000
     40     -47.7251      1.00000
     41     -47.7203      1.00000
     42     -47.7203      1.00000
     43     -47.7203      1.00000
     44     -47.7203      1.00000
     45     -47.7203      1.00000
     46     -47.7203      1.00000
     47     -47.7203      1.00000
     48     -47.7203      1.00000
     49      -9.1145      1.00000
     50      -9.1145      1.00000
     51      -8.5034      1.00000
     52      -8.5034      1.00000
     53      -8.4817      1.00000
     54      -8.4817      1.00000
     55      -7.7749      1.00000
     56      -7.7749      1.00000
     57      -7.7749      1.00000
     58      -7.7749      1.00000
     59      -7.7686      1.00000
     60      -7.7686      1.00000
[...]
    192       6.7113      0.00000
    193       7.6822      0.00000
    194       7.6822      0.00000
    195       8.7753      0.00000
    196       8.7753      0.00000
    197       8.8040      0.00000
    198       8.8040      0.00000
    199       8.8040      0.00000
    200       8.8040      0.00000
    201       9.3037      0.00000
    202       9.3037      0.00000
    203       9.5602      0.00000
    204       9.5602      0.00000
    205      10.0911      0.00000
    206      10.0911      0.00000

[...]

 k-point    23 :       0.5000    0.5000    0.3333
  band No.  band energies     occupation
      1     -64.3079      1.00000
      2     -64.3079      1.00000
      3     -64.3079      1.00000
      4     -64.3079      1.00000
      5     -64.2907      1.00000
      6     -64.2907      1.00000
      7     -64.2907      1.00000
      8     -64.2907      1.00000
      9     -64.2793      1.00000
     10     -64.2793      1.00000
     11     -64.2793      1.00000
     12     -64.2793      1.00000
     13     -64.2793      1.00000
     14     -64.2793      1.00000
     15     -64.2793      1.00000
     16     -64.2793      1.00000
     17     -64.2709      1.00000
     18     -64.2709      1.00000
     19     -64.2709      1.00000
     20     -64.2709      1.00000
     21     -64.2709      1.00000
     22     -64.2709      1.00000
     23     -64.2709      1.00000
     24     -64.2709      1.00000
     25     -51.8769      1.00000
     26     -51.8769      1.00000
     27     -51.8769      1.00000
     28     -51.8769      1.00000
     29     -51.8407      1.00000
     30     -51.8407      1.00000
     31     -51.8407      1.00000
     32     -51.8407      1.00000
     33     -51.8407      1.00000
     34     -51.8407      1.00000
     35     -51.8407      1.00000
     36     -51.8407      1.00000
     37     -47.7251      1.00000
     38     -47.7251      1.00000
     39     -47.7251      1.00000
     40     -47.7251      1.00000
     41     -47.7203      1.00000
     42     -47.7203      1.00000
     43     -47.7203      1.00000
     44     -47.7203      1.00000
     45     -47.7203      1.00000
     46     -47.7203      1.00000
     47     -47.7203      1.00000
     48     -47.7203      1.00000
     49      -8.1347      1.00000
     50      -8.1347      1.00000
     51      -8.1347      1.00000
     52      -8.1347      1.00000
     53      -8.1331      1.00000
     54      -8.1331      1.00000
     55      -8.1331      1.00000
     56      -8.1331      1.00000
     57      -8.1171      1.00000
     58      -8.1171      1.00000
     59      -8.1171      1.00000
     60      -8.1171      1.00000
[...]
    192       6.4611      0.00000
    193       9.4010      0.00000
    194       9.4010      0.00000
    195       9.4010      0.00000
    196       9.4010      0.00000
    197       9.6023      0.00000
    198       9.6023      0.00000
    199       9.6023      0.00000
    200       9.6023      0.00000
    201      10.1235      0.00000
    202      10.1235      0.00000
    203      10.1235      0.00000
    204      10.1235      0.00000
    205      10.5127      0.00000
    206      10.5127      0.00000

 soft charge-density along one line, spin component           1
         0         1         2         3         4         5         6         7         8         9
 total charge-density along one line

[...]

 soft charge-density along one line, spin component           4
         0         1         2         3         4         5         6         7         8         9
 total charge-density along one line

------------------------ aborting loop because EDIFF is reached ----------------------------------------

[...]

  FORCE on cell =-STRESS in cart. coord.  units (eV):
  Direction    XX          YY          ZZ          XY          YZ          ZX
  Alpha Z   588.68295   588.68295   588.68295
  Ewald   -5196.21819 -5196.21819 -5221.11808    -0.00000    -0.00000    -0.00000
  Hartree  3580.24410  3580.24410  3580.64375    -0.00000    -0.00000    -0.00000
  E(xc)   -1050.67047 -1050.67047 -1050.66850    -0.00000    -0.00000    -0.00000
  Local   -1265.97800 -1265.97800 -1238.44913    -0.00000    -0.00000    -0.00000
  n-local   120.78976   122.41379   121.63046    -0.24089    -0.01865    -0.02414
  augment  1181.41948  1181.41948  1179.21098     0.00000     0.00000    -0.00000
  Kinetic  2035.42884  2046.40761  2040.06770    -0.86873     0.11937    -0.03684
  Fock        0.00000     0.00000     0.00000     0.00000     0.00000     0.00000
  Total      -0.00013    -0.00013     0.00014     0.00000     0.00000     0.00000
  in kB      -0.00074    -0.00074     0.00077     0.00000     0.00000     0.00000

 VOLUME and BASIS-vectors are now :
  energy-cutoff  :      700.00
  volume of cell :      287.84
      direct lattice vectors                 reciprocal lattice vectors
     5.258785656  0.000000000  0.000000000     0.190157969  0.000000000  0.000000000
     0.000000000  5.258785656  0.000000000     0.000000000  0.190157969  0.000000000
     0.000000000  0.000000000 10.408334744     0.000000000  0.000000000  0.096076848

  length of vectors
     5.258785656  5.258785656 10.408334744     0.190157969  0.190157969  0.096076848

 FORCES acting on ions
    electron-ion (+dipol)            ewald-force                    non-local-force                 convergence-correction
   0.423E+02 -.121E-12 -.524E-13   -.431E+02 -.142E-13 0.000E+00   0.824E+00 0.729E-18 0.304E-18   0.145E-05 -.852E-13 0.361E-12
   -.423E+02 0.351E-12 0.773E-12   0.431E+02 -.142E-13 -.568E-13   -.824E+00 0.257E-18 0.239E-19   -.477E-06 0.201E-12 0.390E-12
   0.424E-12 -.423E+02 0.685E-12   0.302E-13 0.431E+02 0.142E-12   0.298E-18 -.824E+00 0.191E-18   -.688E-13 -.476E-06 -.334E-12
   0.591E-12 0.423E+02 0.153E-12   -.266E-13 -.431E+02 0.426E-13   -.161E-18 0.824E+00 0.224E-18   0.950E-13 0.145E-05 -.351E-12
   -.423E+02 -.425E-12 0.317E-13   0.431E+02 0.409E-13 -.426E-13   -.824E+00 0.199E-18 -.726E-19   -.145E-05 -.330E-13 -.274E-12
   0.423E+02 -.190E-12 0.312E-12   -.431E+02 -.311E-13 -.426E-13   0.824E+00 0.589E-18 -.556E-18   0.477E-06 0.868E-13 -.298E-12
   0.374E-12 -.423E+02 0.625E-12   0.426E-13 0.431E+02 -.284E-13   -.133E-18 -.824E+00 -.271E-18   -.181E-13 -.145E-05 0.286E-12
   0.169E-12 0.423E+02 0.384E-12   -.426E-13 -.431E+02 0.000E+00   -.161E-18 0.824E+00 0.128E-18   0.335E-13 0.476E-06 0.340E-12
   0.143E-05 -.318E-05 0.227E-12   0.104E-04 -.234E-04 0.000E+00   -.479E-18 0.537E-18 0.854E-18   -.798E-06 0.123E-05 -.143E-12
   -.143E-05 -.318E-05 -.860E-11   -.104E-04 -.234E-04 0.171E-12   0.338E-18 0.267E-18 -.156E-17   0.798E-06 0.123E-05 0.145E-11
   -.143E-05 0.318E-05 -.321E-13   -.104E-04 0.234E-04 -.171E-12   -.326E-18 0.209E-18 0.271E-17   0.798E-06 -.123E-05 -.231E-12
   0.143E-05 0.318E-05 0.533E-12   0.104E-04 0.234E-04 0.135E-13   0.480E-18 0.572E-18 -.106E-17   -.798E-06 -.123E-05 -.190E-11
   -.105E-05 0.266E-05 0.183E-12   -.783E-05 0.195E-04 0.000E+00   0.748E-18 -.581E-19 -.329E-17   0.543E-06 -.101E-05 -.276E-12
   0.105E-05 0.266E-05 -.343E-10   0.783E-05 0.195E-04 -.157E-12   -.551E-18 0.363E-18 0.332E-17   -.543E-06 -.101E-05 -.173E-11
   0.105E-05 -.266E-05 -.113E-10   0.783E-05 -.195E-04 0.114E-12   0.498E-18 0.528E-18 -.276E-17   -.543E-06 0.101E-05 -.578E-12
   -.105E-05 -.266E-05 0.301E-12   -.783E-05 -.195E-04 0.273E-17   -.749E-18 -.393E-19 0.383E-17   0.543E-06 0.101E-05 0.666E-12
   0.266E-10 0.140E-10 -.500E-10   0.362E-13 -.102E-13 -.154E-13   -.222E-15 0.224E-15 0.201E-17   0.106E-11 -.874E-12 -.262E-11

 POSITION                                       TOTAL-FORCE (eV/Angst)
      1.32727      1.31470      1.30104        -0.000007      0.000000      0.000000
      3.93152      3.94409      1.30104         0.000007      0.000000      0.000000
      1.31470      3.93152      9.10729         0.000000      0.000007     -0.000000
      3.94409      1.32727      9.10729         0.000000     -0.000007     -0.000000
      1.30212      1.31470      6.50521         0.000007      0.000000      0.000000
      3.95666      3.94409      6.50521        -0.000007      0.000000     -0.000000
      3.94409      1.30212      3.90313         0.000000      0.000007     -0.000000
      1.31470      3.95666      3.90313         0.000000     -0.000007     -0.000000
      0.00000      0.00000      5.20417        -0.000000      0.000000     -0.000000
      2.62939      0.00000      2.60208         0.000000      0.000000      0.000000
      2.62939      2.62939      0.00000        -0.000000      0.000000     -0.000000
      0.00000      2.62939      7.80625         0.000000      0.000000      0.000000
      0.00000      0.00000      0.00000         0.000000      0.000000      0.000000
      2.62939      0.00000      7.80625        -0.000000      0.000000     -0.000000
      2.62939      2.62939      5.20417         0.000000      0.000000      0.000000
      0.00000      2.62939      2.60208        -0.000000      0.000000     -0.000000
    total drift:                                0.000000      0.000000     -0.000000

  FREE ENERGIE OF THE ION-ELECTRON SYSTEM (eV)
  free  energy   TOTEN  =       -82.06499758 eV

  energy  without entropy=      -82.06499758  energy(sigma->0) =      -82.06499758

 writing wavefunctions

 total charge

[...]

 magnetization (x)

[...]

 magnetization (y)

[...]

 magnetization (z)

# of ion       s       p       d       tot
    1        0.000  -0.003   0.000  -0.002
    2        0.000  -0.004   0.000  -0.003
    3       -0.000   0.003   0.000   0.003
    4       -0.000   0.003   0.000   0.003
    5        0.000  -0.004   0.000  -0.003
    6        0.000  -0.003   0.000  -0.002
    7       -0.000   0.003   0.000   0.003
    8       -0.000   0.003   0.000   0.003
    9        0.000   0.001  -0.001   0.000
   10       -0.000  -0.000   0.001  -0.000
   11        0.000   0.001  -0.001   0.000
   12       -0.000  -0.000   0.001  -0.000
   13        0.020   0.054   3.669   3.743
   14       -0.020  -0.054  -3.669  -3.743
   15        0.020   0.054   3.669   3.743
   16       -0.020  -0.054  -3.669  -3.743
tot         -0.000   0.000  -0.000  -0.000

 BZINTS: Fermi energy:  4.852580;172.000000 electrons
         Band energy:***********;  BLOECHL correction:  0.000000
 BZINTS: Fermi energy:  4.852580;172.000000 electrons
         Band energy:***********;  BLOECHL correction:  0.000000
 BZINTS: Fermi energy:  4.852580;172.000000 electrons
         Band energy:***********;  BLOECHL correction:  0.000000
 BZINTS: Fermi energy:  4.852580;172.000000 electrons
         Band energy:***********;  BLOECHL correction:  0.000000