 vasp.5.4.4.18Apr17-6-g9f103f2a35 (build Oct 30 2023 17:30:16) complex

 executed on             LinuxIFC date 2024.06.30  18:45:48

 INCAR:
 POTCAR:    PAW_PBE S 06Sep2000
 POTCAR:     PAW_PBE Cu_pv 06Sep2000
 POTCAR:     PAW_PBE Fe_pv 02Aug2007

   TITEL  = PAW_PBE S 06Sep2000
   POMASS =   32.066; ZVAL   =    6.000    mass and valenz
   ENMAX  =  258.689; ENMIN  =  194.016 eV

   TITEL  = PAW_PBE Cu_pv 06Sep2000
   POMASS =   63.546; ZVAL   =   17.000    mass and valenz
   ENMAX  =  368.648; ENMIN  =  276.486 eV

   TITEL  = PAW_PBE Fe_pv 02Aug2007
   POMASS =   55.847; ZVAL   =   14.000    mass and valenz
   ENMAX  =  293.238; ENMIN  =  219.928 eV

  PAW_PBE S 06Sep2000                   :
   PAW_PBE Cu_pv 06Sep2000              :
   PAW_PBE Fe_pv 02Aug2007              :

 POSCAR: generated by phonopy
  positions in direct lattice
  velocities in cartesian coordinates
 exchange correlation table for  LEXCH =       14
   RHO(1)=    0.500       N(1)  =     2000
   RHO(2)=  100.500       N(2)  =     4000

 ion  position               nearest neighbor table
   1  0.126  0.123  0.125-  41 2.26  37 2.27  61 2.27  49 2.28
   2  0.626  0.123  0.125-  42 2.26  38 2.27  62 2.27  50 2.28
   3  0.126  0.623  0.125-  43 2.26  39 2.27  63 2.27  51 2.28
   4  0.626  0.623  0.125-  44 2.26  40 2.27  64 2.27  52 2.28
   5  0.374  0.373  0.125-  39 2.26  41 2.27  52 2.27  62 2.28
   6  0.874  0.373  0.125-  40 2.26  42 2.27  51 2.27  61 2.28
   7  0.374  0.873  0.125-  37 2.26  43 2.27  50 2.27  64 2.28
   8  0.874  0.873  0.125-  38 2.26  44 2.27  49 2.27  63 2.28
   9  0.125  0.372  0.875-  41 2.26  45 2.26  55 2.27  51 2.27
  10  0.625  0.372  0.875-  42 2.26  46 2.26  52 2.27  56 2.27
  11  0.125  0.872  0.875-  43 2.26  47 2.26  53 2.27  49 2.27
  12  0.625  0.872  0.875-  44 2.26  48 2.26  50 2.27  54 2.27
  13  0.375  0.125  0.875-  41 2.26  46 2.26  50 2.28  53 2.28
  14  0.875  0.125  0.875-  45 2.26  42 2.26  49 2.28  54 2.28
  15  0.375  0.625  0.875-  43 2.26  48 2.26  52 2.28  55 2.28
  16  0.875  0.625  0.875-  47 2.26  44 2.26  51 2.28  56 2.28
  17  0.124  0.123  0.625-  45 2.26  33 2.27  57 2.27  53 2.28
  18  0.624  0.123  0.625-  46 2.26  34 2.27  58 2.27  54 2.28
  19  0.124  0.623  0.625-  47 2.26  35 2.27  59 2.27  55 2.28
  20  0.624  0.623  0.625-  48 2.26  36 2.27  60 2.27  56 2.28
  21  0.376  0.373  0.625-  36 2.26  46 2.27  55 2.27  57 2.28
  22  0.876  0.373  0.625-  35 2.26  45 2.27  56 2.27  58 2.28
  23  0.376  0.873  0.625-  34 2.26  48 2.27  53 2.27  59 2.28
  24  0.876  0.873  0.625-  33 2.26  47 2.27  54 2.27  60 2.28
  25  0.375  0.122  0.375-  34 2.26  37 2.26  57 2.27  62 2.27
  26  0.875  0.122  0.375-  33 2.26  38 2.26  61 2.27  58 2.27
  27  0.375  0.622  0.375-  36 2.26  39 2.26  59 2.27  64 2.27
  28  0.875  0.622  0.375-  35 2.26  40 2.26  63 2.27  60 2.27
  29  0.125  0.375  0.375-  39 2.26  35 2.26  61 2.28  57 2.28
  30  0.625  0.375  0.375-  36 2.26  40 2.26  62 2.28  58 2.28
  31  0.125  0.875  0.375-  37 2.26  33 2.26  63 2.28  59 2.28
  32  0.625  0.875  0.375-  34 2.26  38 2.26  64 2.28  60 2.28
  33  0.999  0.002  0.500-  24 2.26  31 2.26  26 2.26  17 2.27
  34  0.499  0.002  0.500-  23 2.26  32 2.26  25 2.26  18 2.27
  35  0.999  0.502  0.500-  22 2.26  29 2.26  28 2.26  19 2.27
  36  0.499  0.502  0.500-  21 2.26  30 2.26  27 2.26  20 2.27
  37  0.251  0.002  0.250-   7 2.26  31 2.26  25 2.26   1 2.27
  38  0.751  0.002  0.250-   8 2.26  32 2.26  26 2.26   2 2.27
  39  0.251  0.502  0.250-   5 2.26  29 2.26  27 2.26   3 2.27
  40  0.751  0.502  0.250-   6 2.26  30 2.26  28 2.26   4 2.27
  41  0.249  0.252  0.000-   1 2.26  13 2.26   9 2.26   5 2.27
  42  0.749  0.252  0.000-   2 2.26  14 2.26  10 2.26   6 2.27
  43  0.249  0.752  0.000-   3 2.26  15 2.26  11 2.26   7 2.27
  44  0.749  0.752  0.000-   4 2.26  16 2.26  12 2.26   8 2.27
  45  0.001  0.252  0.750-  17 2.26  14 2.26   9 2.26  22 2.27
  46  0.501  0.252  0.750-  18 2.26  13 2.26  10 2.26  21 2.27
  47  0.001  0.752  0.750-  19 2.26  16 2.26  11 2.26  24 2.27
  48  0.501  0.752  0.750-  20 2.26  15 2.26  12 2.26  23 2.27
  49  1.000  0.002  0.000-   8 2.27  11 2.27  14 2.28   1 2.28
  50  0.500  0.002  0.000-   7 2.27  12 2.27  13 2.28   2 2.28
  51  1.000  0.502  0.000-   6 2.27   9 2.27  16 2.28   3 2.28
  52  0.500  0.502  0.000-   5 2.27  10 2.27  15 2.28   4 2.28
  53  0.250  0.002  0.750-  23 2.27  11 2.27  13 2.28  17 2.28
  54  0.750  0.002  0.750-  24 2.27  12 2.27  14 2.28  18 2.28
  55  0.250  0.502  0.750-  21 2.27   9 2.27  15 2.28  19 2.28
  56  0.750  0.502  0.750-  22 2.27  10 2.27  16 2.28  20 2.28
  57  0.250  0.252  0.500-  17 2.27  25 2.27  29 2.28  21 2.28
  58  0.750  0.252  0.500-  18 2.27  26 2.27  30 2.28  22 2.28
  59  0.250  0.752  0.500-  19 2.27  27 2.27  31 2.28  23 2.28
  60  0.750  0.752  0.500-  20 2.27  28 2.27  32 2.28  24 2.28
  61  0.000  0.252  0.250-   1 2.27  26 2.27  29 2.28   6 2.28
  62  0.500  0.252  0.250-   2 2.27  25 2.27  30 2.28   5 2.28
  63  0.000  0.752  0.250-   3 2.27  28 2.27  31 2.28   8 2.28
  64  0.500  0.752  0.250-   4 2.27  27 2.27  32 2.28   7 2.28

  LATTYP: Found a simple monoclinic cell.
 ALAT       =    15.0536425427
 B/A-ratio  =     0.6986383775
 C/A-ratio  =     1.5711727551
 COS(beta)  =    -0.9516127975

  Lattice vectors:

 A1 = ( -10.8792635861,   0.0000000000, -10.4045075630)
 A2 = (   0.0000000000, -10.5170524021,   0.0000000000)
 A3 = (  11.2425969964,   0.0000000000,  20.8090151260)

Analysis of symmetry for initial positions (statically):
 Subroutine PRICEL returns following result:

  LATTYP: Found a base centered monoclinic cell.
 ALAT       =    11.4983127844
 B/A-ratio  =     0.4573302449
 C/A-ratio  =     0.9054241058
 COS(beta)  =    -0.8088885846

[...]

   8 primitive cells build up your supercell.

 Routine SETGRP: Setting up the symmetry group for a
 simple monoclinic supercell.

 Subroutine GETGRP returns: Found  2 space group operations
 (whereof  1 operations were pure point group operations)
 out of a pool of  4 trial point group operations.

The static configuration has the point symmetry C_1 .
 The point group associated with its full space group is C_2 .

Analysis of symmetry for dynamics (positions and initial velocities):
 Subroutine PRICEL returns following result:

[...]

The dynamic configuration has the point symmetry C_1 .
 The point group associated with its full space group is C_2 .

Analysis of structural, dynamic, and magnetic symmetry:
 Subroutine PRICEL returns following result:

  LATTYP: Found a base centered monoclinic cell.
 ALAT       =    11.4983127844
 B/A-ratio  =     0.4573302449
 C/A-ratio  =     0.9054241058
 COS(beta)  =    -0.8088885846

  Lattice vectors:

 A1 = (  -2.4473158388,  -2.6292631005,   5.2022537815)
 A2 = (  -2.4473158388,   2.6292631005,   5.2022537815)
 A3 = (  -0.3633334103,   0.0000000000, -10.4045075630)

   8 primitive cells build up your supercell.

 Routine SETGRP: Setting up the symmetry group for a
 simple monoclinic supercell.

 Subroutine GETGRP returns: Found  2 space group operations
 (whereof  1 operations were pure point group operations)
 out of a pool of  4 trial point group operations.

The magnetic configuration has the point symmetry C_1 .
 The point group associated with its full space group is C_2 .

 Subroutine INISYM returns: Found  2 space group operations
 (whereof  1 operations are pure point group operations),
 and found     8 'primitive' translations

 KPOINTS: Automatic mesh

Automatic generation of k-mesh.
Space group operators:
 irot       det(A)        alpha          n_x          n_y          n_z        tau_x        tau_y        tau_z
    1     1.000000     0.000000     1.000000     0.000000     0.000000     0.000000     0.000000     0.000000
    2     1.000000   180.000000     0.000000     1.000000     0.000000    -0.250000     0.000000    -0.250000

 Subroutine IBZKPT returns following result:

 Found      8 irreducible k-points:

 Following reciprocal coordinates:
            Coordinates               Weight
  0.000000  0.000000  0.000000      1.000000
  0.500000  0.000000  0.000000      1.000000
  0.000000  0.500000  0.000000      1.000000
  0.500000  0.500000  0.000000      1.000000
  0.000000  0.000000  0.500000      1.000000
  0.500000  0.000000  0.500000      1.000000
  0.000000  0.500000  0.500000      1.000000
  0.500000  0.500000  0.500000      1.000000

 Following cartesian coordinates:
            Coordinates               Weight
  0.000000  0.000000  0.000000      1.000000
  0.047547  0.000000 -0.001660      1.000000
  0.000000  0.047542  0.000000      1.000000
  0.047547  0.047542 -0.001660      1.000000
  0.000000  0.000000  0.048056      1.000000
  0.047547  0.000000  0.046396      1.000000
  0.000000  0.047542  0.048056      1.000000
  0.047547  0.047542  0.046396      1.000000

 TETIRR: Found     24 inequivalent tetrahedra from       48

 Subroutine IBZKPT_HF returns following result:

 Found      8 k-points in 1st BZ
 the following      8 k-points will be used (e.g. in the exchange kernel)
 Following reciprocal coordinates:   # in IRBZ
  0.000000  0.000000  0.000000    0.12500000   1 t-inv F
  0.500000  0.000000  0.000000    0.12500000   2 t-inv F
  0.000000  0.500000  0.000000    0.12500000   3 t-inv F
  0.500000  0.500000  0.000000    0.12500000   4 t-inv F
  0.000000  0.000000  0.500000    0.12500000   5 t-inv F
  0.500000  0.000000  0.500000    0.12500000   6 t-inv F
  0.000000  0.500000  0.500000    0.12500000   7 t-inv F
  0.500000  0.500000  0.500000    0.12500000   8 t-inv F

 SYSTEM =  CuFeS2
 POSCAR =  generated by phonopy

 Startparameter for this run:
   NWRITE =      2    write-flag & timer
   PREC   = accura    normal or accurate (medium, high low for compatibility)
   ISTART =      0    job   : 0-new  1-cont  2-samecut
   ICHARG =      1    charge: 1-file 2-atom 10-const
   ISPIN  =      2    spin polarized calculation?
   LNONCOLLINEAR =      F non collinear calculations
   LSORBIT =      F    spin-orbit coupling
   INIWAV =      1    electr: 0-lowe 1-rand  2-diag
   LASPH  =      F    aspherical Exc in radial PAW
   METAGGA=      F    non-selfconsistent MetaGGA calc.

 Electronic Relaxation 1
   ENCUT  =  700.0 eV  51.45 Ry    7.17 a.u.  22.69 22.69 22.46*2*pi/ulx,y,z
   ENINI  =  700.0     initial cutoff
   ENAUG  =  758.2 eV  augmentation charge cutoff
   NELM   =    500;   NELMIN=  2; NELMDL= -5     # of ELM steps
   EDIFF  = 0.1E-07   stopping-criterion for ELM
   LREAL  =      F    real-space projection
   NLSPLINE    = F    spline interpolate recip. space projectors
   LCOMPAT=      F    compatible to vasp.4.4
   GGA_COMPAT  = T    GGA compatible to vasp.4.4-vasp.4.6
   LMAXPAW     = -100 max onsite density
   LMAXMIX     =    4 max onsite mixed and CHGCAR
   VOSKOWN=      0    Vosko Wilk Nusair interpolation
   ROPT   =    0.00000   0.00000   0.00000
 Ionic relaxation
   EDIFFG = -.1E-04   stopping-criterion for IOM
   NSW    =      0    number of steps for IOM
   NBLOCK =      1;   KBLOCK =      1    inner block; outer block
   IBRION =     -1    ionic relax: 0-MD 1-quasi-New 2-CG
   NFREE  =      0    steps in history (QN), initial steepest desc. (CG)
[...]
   0.421E+02 0.121E+02 0.373E+00   -.429E+02 -.122E+02 -.371E+00   0.855E+00 0.792E-01 -.115E-02   -.757E-05 0.150E-05 0.118E-05
   -.421E+02 0.121E+02 -.373E+00   0.429E+02 -.122E+02 0.371E+00   -.855E+00 0.792E-01 0.115E-02   0.702E-05 0.177E-05 -.146E-05
   -.421E+02 0.121E+02 -.373E+00   0.429E+02 -.122E+02 0.371E+00   -.855E+00 0.792E-01 0.115E-02   0.700E-05 0.177E-05 -.146E-05
   -.421E+02 0.121E+02 -.373E+00   0.429E+02 -.122E+02 0.371E+00   -.855E+00 0.792E-01 0.115E-02   0.702E-05 0.176E-05 -.924E-06
   -.421E+02 0.121E+02 -.373E+00   0.429E+02 -.122E+02 0.371E+00   -.855E+00 0.792E-01 0.115E-02   0.700E-05 0.175E-05 -.926E-06
   -.148E-06 -.327E+02 -.105E-07   -.136E-05 0.335E+02 0.953E-07   0.238E-23 -.783E+00 0.000E+00   0.294E-06 0.105E-05 -.116E-07
   0.141E-06 -.327E+02 -.286E-07   0.763E-06 0.335E+02 -.355E-07   0.124E-23 -.783E+00 0.199E-22   -.272E-06 0.106E-05 0.104E-07
   -.148E-06 -.327E+02 -.105E-07   -.136E-05 0.335E+02 0.953E-07   0.248E-23 -.783E+00 0.662E-23   0.294E-06 0.103E-05 -.116E-07
   0.141E-06 -.327E+02 -.286E-07   0.763E-06 0.335E+02 -.355E-07   -.134E-22 -.783E+00 0.132E-22   -.272E-06 0.103E-05 0.104E-07
   0.623E-07 0.516E+02 -.401E-06   0.474E-06 -.525E+02 -.380E-05   -.153E-22 0.937E+00 0.000E+00   0.228E-07 -.545E-05 0.269E-06
   0.902E-07 0.516E+02 0.612E-06   0.672E-06 -.525E+02 0.365E-05   -.165E-23 0.937E+00 0.000E+00   -.493E-07 -.545E-05 -.268E-06
   0.623E-07 0.516E+02 -.401E-06   0.474E-06 -.525E+02 -.380E-05   -.827E-24 0.937E+00 0.000E+00   0.228E-07 -.658E-05 0.269E-06
   0.902E-07 0.516E+02 0.612E-06   0.672E-06 -.525E+02 0.365E-05   0.248E-23 0.937E+00 -.132E-22   -.493E-07 -.658E-05 -.268E-06
   -.421E+02 0.121E+02 -.373E+00   0.429E+02 -.122E+02 0.371E+00   -.855E+00 0.792E-01 0.115E-02   0.705E-05 0.207E-05 -.123E-05
   -.421E+02 0.121E+02 -.373E+00   0.429E+02 -.122E+02 0.371E+00   -.855E+00 0.792E-01 0.115E-02   0.701E-05 0.207E-05 -.117E-05
   -.421E+02 0.121E+02 -.373E+00   0.429E+02 -.122E+02 0.371E+00   -.855E+00 0.792E-01 0.115E-02   0.705E-05 0.150E-05 -.122E-05
   -.421E+02 0.121E+02 -.373E+00   0.429E+02 -.122E+02 0.371E+00   -.855E+00 0.792E-01 0.115E-02   0.701E-05 0.150E-05 -.116E-05
   0.421E+02 0.121E+02 0.373E+00   -.429E+02 -.122E+02 -.371E+00   0.855E+00 0.792E-01 -.115E-02   -.703E-05 0.177E-05 0.146E-05
   0.421E+02 0.121E+02 0.373E+00   -.429E+02 -.122E+02 -.371E+00   0.855E+00 0.792E-01 -.115E-02   -.704E-05 0.177E-05 0.146E-05
   0.421E+02 0.121E+02 0.373E+00   -.429E+02 -.122E+02 -.371E+00   0.855E+00 0.792E-01 -.115E-02   -.703E-05 0.175E-05 0.926E-06
   0.421E+02 0.121E+02 0.373E+00   -.429E+02 -.122E+02 -.371E+00   0.855E+00 0.792E-01 -.115E-02   -.705E-05 0.176E-05 0.925E-06
   0.124E-06 -.327E+02 0.477E-06   0.646E-06 0.335E+02 0.369E-05   0.000E+00 -.783E+00 -.132E-22   -.356E-07 0.109E-05 -.268E-06
   0.107E-06 -.327E+02 -.539E-06   0.512E-06 0.335E+02 -.380E-05   0.157E-22 -.783E+00 -.132E-22   0.894E-08 0.109E-05 0.270E-06
   0.124E-06 -.327E+02 0.477E-06   0.646E-06 0.335E+02 0.369E-05   -.165E-23 -.783E+00 0.132E-22   -.356E-07 0.104E-05 -.268E-06
   0.107E-06 -.327E+02 -.539E-06   0.512E-06 0.335E+02 -.380E-05   0.103E-22 -.783E+00 0.000E+00   0.894E-08 0.104E-05 0.270E-06
   -.187E-06 0.516E+02 0.125E-06   -.137E-05 -.525E+02 0.753E-07   -.610E-23 0.937E+00 0.827E-24   0.295E-06 -.605E-05 -.104E-07
   0.102E-06 0.516E+02 0.111E-06   0.765E-06 -.525E+02 -.295E-07   -.296E-22 0.937E+00 0.000E+00   -.272E-06 -.605E-05 0.939E-08
   -.187E-06 0.516E+02 0.125E-06   -.137E-05 -.525E+02 0.753E-07   0.607E-23 0.937E+00 -.331E-23   0.295E-06 -.606E-05 -.104E-07
   0.102E-06 0.516E+02 0.111E-06   0.765E-06 -.525E+02 -.295E-07   -.163E-22 0.937E+00 -.331E-23   -.272E-06 -.606E-05 0.939E-08
   0.260E+01 -.115E+02 0.212E+00   -.257E+01 0.110E+02 -.217E+00   -.336E-01 0.463E+00 0.456E-02   -.667E-04 0.742E-04 -.742E-04
   0.260E+01 -.115E+02 0.212E+00   -.257E+01 0.110E+02 -.217E+00   -.336E-01 0.463E+00 0.456E-02   -.672E-04 0.742E-04 -.749E-04
   0.260E+01 -.115E+02 0.212E+00   -.257E+01 0.110E+02 -.217E+00   -.336E-01 0.463E+00 0.456E-02   -.667E-04 0.738E-04 -.734E-04
   0.260E+01 -.115E+02 0.212E+00   -.257E+01 0.110E+02 -.217E+00   -.336E-01 0.463E+00 0.456E-02   -.671E-04 0.738E-04 -.741E-04
   -.260E+01 -.115E+02 -.212E+00   0.257E+01 0.110E+02 0.217E+00   0.336E-01 0.463E+00 -.456E-02   0.679E-04 0.743E-04 0.741E-04
   -.260E+01 -.115E+02 -.212E+00   0.257E+01 0.110E+02 0.217E+00   0.336E-01 0.463E+00 -.456E-02   0.659E-04 0.742E-04 0.750E-04
   -.260E+01 -.115E+02 -.212E+00   0.257E+01 0.110E+02 0.217E+00   0.336E-01 0.463E+00 -.456E-02   0.679E-04 0.739E-04 0.733E-04
   -.260E+01 -.115E+02 -.212E+00   0.257E+01 0.110E+02 0.217E+00   0.336E-01 0.463E+00 -.456E-02   0.659E-04 0.738E-04 0.742E-04
   0.260E+01 -.115E+02 0.212E+00   -.257E+01 0.110E+02 -.217E+00   -.336E-01 0.463E+00 0.456E-02   -.657E-04 0.750E-04 -.742E-04
   0.260E+01 -.115E+02 0.212E+00   -.257E+01 0.110E+02 -.217E+00   -.336E-01 0.463E+00 0.456E-02   -.679E-04 0.751E-04 -.751E-04
   0.260E+01 -.115E+02 0.212E+00   -.257E+01 0.110E+02 -.217E+00   -.336E-01 0.463E+00 0.456E-02   -.658E-04 0.729E-04 -.733E-04
   0.260E+01 -.115E+02 0.212E+00   -.257E+01 0.110E+02 -.217E+00   -.336E-01 0.463E+00 0.456E-02   -.680E-04 0.730E-04 -.742E-04
   -.260E+01 -.115E+02 -.212E+00   0.257E+01 0.110E+02 0.217E+00   0.336E-01 0.463E+00 -.456E-02   0.670E-04 0.750E-04 0.742E-04
   -.260E+01 -.115E+02 -.212E+00   0.257E+01 0.110E+02 0.217E+00   0.336E-01 0.463E+00 -.456E-02   0.667E-04 0.750E-04 0.751E-04
   -.260E+01 -.115E+02 -.212E+00   0.257E+01 0.110E+02 0.217E+00   0.336E-01 0.463E+00 -.456E-02   0.671E-04 0.730E-04 0.733E-04
   -.260E+01 -.115E+02 -.212E+00   0.257E+01 0.110E+02 0.217E+00   0.336E-01 0.463E+00 -.456E-02   0.668E-04 0.730E-04 0.742E-04
   -.299E+01 -.113E+02 0.411E+00   0.293E+01 0.107E+02 -.419E+00   0.638E-01 0.614E+00 0.813E-02   -.491E-05 -.402E-05 -.218E-04
   -.299E+01 -.113E+02 0.411E+00   0.293E+01 0.107E+02 -.419E+00   0.638E-01 0.614E+00 0.813E-02   -.646E-05 -.394E-05 -.211E-04
   -.299E+01 -.113E+02 0.411E+00   0.293E+01 0.107E+02 -.419E+00   0.638E-01 0.614E+00 0.813E-02   -.499E-05 -.569E-05 -.225E-04
   -.299E+01 -.113E+02 0.411E+00   0.293E+01 0.107E+02 -.419E+00   0.638E-01 0.614E+00 0.813E-02   -.654E-05 -.561E-05 -.218E-04
   0.299E+01 -.113E+02 -.411E+00   -.293E+01 0.107E+02 0.419E+00   -.638E-01 0.614E+00 -.813E-02   0.590E-05 -.399E-05 0.217E-04
   0.299E+01 -.113E+02 -.411E+00   -.293E+01 0.107E+02 0.419E+00   -.638E-01 0.614E+00 -.813E-02   0.547E-05 -.396E-05 0.211E-04
   0.299E+01 -.113E+02 -.411E+00   -.293E+01 0.107E+02 0.419E+00   -.638E-01 0.614E+00 -.813E-02   0.597E-05 -.565E-05 0.224E-04
   0.299E+01 -.113E+02 -.411E+00   -.293E+01 0.107E+02 0.419E+00   -.638E-01 0.614E+00 -.813E-02   0.555E-05 -.562E-05 0.218E-04
   -.299E+01 -.113E+02 0.411E+00   0.293E+01 0.107E+02 -.419E+00   0.638E-01 0.614E+00 0.813E-02   -.561E-05 -.460E-05 -.218E-04
   -.299E+01 -.113E+02 0.411E+00   0.293E+01 0.107E+02 -.419E+00   0.638E-01 0.614E+00 0.813E-02   -.590E-05 -.462E-05 -.211E-04
   -.299E+01 -.113E+02 0.411E+00   0.293E+01 0.107E+02 -.419E+00   0.638E-01 0.614E+00 0.813E-02   -.559E-05 -.495E-05 -.225E-04
   -.299E+01 -.113E+02 0.411E+00   0.293E+01 0.107E+02 -.419E+00   0.638E-01 0.614E+00 0.813E-02   -.587E-05 -.498E-05 -.218E-04
   0.299E+01 -.113E+02 -.411E+00   -.293E+01 0.107E+02 0.419E+00   -.638E-01 0.614E+00 -.813E-02   0.661E-05 -.456E-05 0.218E-04
   0.299E+01 -.113E+02 -.411E+00   -.293E+01 0.107E+02 0.419E+00   -.638E-01 0.614E+00 -.813E-02   0.490E-05 -.464E-05 0.211E-04
   0.299E+01 -.113E+02 -.411E+00   -.293E+01 0.107E+02 0.419E+00   -.638E-01 0.614E+00 -.813E-02   0.658E-05 -.492E-05 0.225E-04
   0.299E+01 -.113E+02 -.411E+00   -.293E+01 0.107E+02 0.419E+00   -.638E-01 0.614E+00 -.813E-02   0.487E-05 -.499E-05 0.218E-04
   -.552E-04 -.197E+02 0.257E-03   -.857E-13 0.426E-13 0.137E-11   0.860E-15 0.197E+02 0.000E+00   0.391E-09 0.110E-02 -.111E-08

 POSITION                                       TOTAL-FORCE (eV/Angst)
      1.37242      1.29187      1.30420        -0.000351     -0.000362      0.000016
      6.63039      1.29187      1.30420        -0.000351     -0.000362      0.000016
      1.37242      6.55040      1.30420        -0.000351     -0.000362      0.000016
      6.63039      6.55040      1.30420        -0.000351     -0.000362      0.000016
      3.97638      3.92114      1.29693         0.000351     -0.000362     -0.000016
      9.23434      3.92114      1.29693         0.000351     -0.000362     -0.000016
      3.97638      9.17966      1.29693         0.000351     -0.000362     -0.000016
      9.23434      9.17966      1.29693         0.000351     -0.000362     -0.000016
      1.63241      3.91571      9.10394         0.000000      0.000544     -0.000000
      6.89037      3.91571      9.10394         0.000000      0.000544     -0.000000
      1.63241      9.17424      9.10394         0.000000      0.000544     -0.000000
      6.89037      9.17424      9.10394         0.000000      0.000544     -0.000000
      4.26139      1.31010      9.10394         0.000000     -0.000267     -0.000000
      9.51936      1.31010      9.10394         0.000000     -0.000267     -0.000000
      4.26139      6.56862      9.10394         0.000000     -0.000267     -0.000000
      9.51936      6.56862      9.10394         0.000000     -0.000267     -0.000000
      1.52906      1.29187      6.49918         0.000351     -0.000362     -0.000016
      6.78703      1.29187      6.49918         0.000351     -0.000362     -0.000016
      1.52906      6.55040      6.49918         0.000351     -0.000362     -0.000016
      6.78703      6.55040      6.49918         0.000351     -0.000362     -0.000016
      4.18307      3.92114      6.50645        -0.000351     -0.000362      0.000016
      9.44104      3.92114      6.50645        -0.000351     -0.000362      0.000016
      4.18307      9.17966      6.50645        -0.000351     -0.000362      0.000016
      9.44104      9.17966      6.50645        -0.000351     -0.000362      0.000016
      4.07972      1.28645      3.90169         0.000000      0.000544     -0.000000
      9.33769      1.28645      3.90169         0.000000      0.000544     -0.000000
      4.07972      6.54498      3.90169         0.000000      0.000544     -0.000000
      9.33769      6.54498      3.90169         0.000000      0.000544     -0.000000
      1.45074      3.93936      3.90169         0.000000     -0.000267     -0.000000
      6.70871      3.93936      3.90169         0.000000     -0.000267     -0.000000
      1.45074      9.19788      3.90169         0.000000     -0.000267     -0.000000
      6.70871      9.19788      3.90169         0.000000     -0.000267     -0.000000
     10.69097      0.01997      5.20229        -0.000808     -0.000191     -0.000260
      5.43300      0.01997      5.20229        -0.000808     -0.000191     -0.000260
     10.69097      5.27849      5.20229        -0.000808     -0.000191     -0.000260
      5.43300      5.27849      5.20229        -0.000808     -0.000191     -0.000260
      2.72645      0.01997      2.60109         0.000808     -0.000191      0.000260
      7.98441      0.01997      2.60109         0.000808     -0.000191      0.000260
      2.72645      5.27849      2.60109         0.000808     -0.000191      0.000260
      7.98441      5.27849      2.60109         0.000808     -0.000191      0.000260
      2.62235      2.64923      0.00004        -0.000808     -0.000191     -0.000260
      7.88032      2.64923      0.00004        -0.000808     -0.000191     -0.000260
      2.62235      7.90776      0.00004        -0.000808     -0.000191     -0.000260
      7.88032      7.90776      0.00004        -0.000808     -0.000191     -0.000260
      0.27913      2.64923      7.80335         0.000808     -0.000191      0.000260
      5.53710      2.64923      7.80335         0.000808     -0.000191      0.000260
      0.27913      7.90776      7.80335         0.000808     -0.000191      0.000260
      5.53710      7.90776      7.80335         0.000808     -0.000191      0.000260
     10.51266      0.01915      0.00060        -0.000467      0.000415      0.000132
      5.25470      0.01915      0.00060        -0.000467      0.000415      0.000132
     10.51266      5.27768      0.00060        -0.000467      0.000415      0.000132
      5.25470      5.27768      0.00060        -0.000467      0.000415      0.000132
      2.90475      0.01915      7.80278         0.000467      0.000415     -0.000132
      8.16271      0.01915      7.80278         0.000467      0.000415     -0.000132
      2.90475      5.27768      7.80278         0.000467      0.000415     -0.000132
      8.16271      5.27768      7.80278         0.000467      0.000415     -0.000132
      2.80738      2.64841      5.20285        -0.000467      0.000415      0.000132
      8.06535      2.64841      5.20285        -0.000467      0.000415      0.000132
      2.80738      7.90694      5.20285        -0.000467      0.000415      0.000132
      8.06535      7.90694      5.20285        -0.000467      0.000415      0.000132
      0.09410      2.64841      2.60053         0.000467      0.000415     -0.000132
      5.35207      2.64841      2.60053         0.000467      0.000415     -0.000132
      0.09410      7.90694      2.60053         0.000467      0.000415     -0.000132
      5.35207      7.90694      2.60053         0.000467      0.000415     -0.000132
    total drift:                               -0.000055     -0.023286      0.000257

  FREE ENERGIE OF THE ION-ELECTRON SYSTEM (eV)
  free  energy   TOTEN  =      -327.99404739 eV

  energy  without entropy=     -327.99404739  energy(sigma->0) =     -327.99404739

 writing wavefunctions

 total charge

[...]

 magnetization (x)

# of ion       s       p       d       tot
    1       -0.000  -0.008   0.000  -0.008
    2       -0.000  -0.008   0.000  -0.008
    3       -0.000  -0.008   0.000  -0.008
    4       -0.000  -0.008   0.000  -0.008
    5        0.000   0.008   0.000   0.008
    6        0.000   0.008   0.000   0.008
    7        0.000   0.008   0.000   0.008
    8        0.000   0.008   0.000   0.008
    9        0.000  -0.000   0.000  -0.000
   10       -0.000   0.000   0.000   0.000
   11        0.000  -0.000   0.000  -0.000
   12       -0.000   0.000   0.000   0.000
   13       -0.000   0.000   0.000   0.000
   14        0.000  -0.000   0.000  -0.000
   15       -0.000   0.000   0.000   0.000
   16        0.000  -0.000   0.000  -0.000
   17        0.000   0.008   0.000   0.008
   18        0.000   0.008   0.000   0.008
   19        0.000   0.008   0.000   0.008
   20        0.000   0.008   0.000   0.008
   21       -0.000  -0.008   0.000  -0.008
   22       -0.000  -0.008   0.000  -0.008
   23       -0.000  -0.008   0.000  -0.008
   24       -0.000  -0.008   0.000  -0.008
   25        0.000  -0.000   0.000  -0.000
   26       -0.000   0.000   0.000   0.000
   27        0.000  -0.000   0.000  -0.000
   28       -0.000   0.000   0.000   0.000
   29       -0.000   0.000   0.000   0.000
   30        0.000  -0.000   0.000  -0.000
   31       -0.000   0.000   0.000   0.000
   32        0.000  -0.000   0.000  -0.000
   33        0.000   0.001  -0.001  -0.000
   34        0.000   0.001  -0.001  -0.000
   35        0.000   0.001  -0.001  -0.000
   36        0.000   0.001  -0.001  -0.000
   37       -0.000  -0.001   0.001   0.000
   38       -0.000  -0.001   0.001   0.000
   39       -0.000  -0.001   0.001   0.000
   40       -0.000  -0.001   0.001   0.000
   41        0.000   0.001  -0.001  -0.000
   42        0.000   0.001  -0.001  -0.000
   43        0.000   0.001  -0.001  -0.000
   44        0.000   0.001  -0.001  -0.000
   45       -0.000  -0.001   0.001   0.000
   46       -0.000  -0.001   0.001   0.000
   47       -0.000  -0.001   0.001   0.000
   48       -0.000  -0.001   0.001   0.000
   49        0.020   0.054   3.671   3.744
   50        0.020   0.054   3.670   3.744
   51        0.020   0.054   3.670   3.744
   52        0.020   0.054   3.670   3.744
   53       -0.020  -0.054  -3.671  -3.744
   54       -0.020  -0.054  -3.670  -3.744
   55       -0.020  -0.054  -3.670  -3.744
   56       -0.020  -0.054  -3.670  -3.744
   57        0.020   0.054   3.670   3.744
   58        0.020   0.054   3.670   3.744
   59        0.020   0.054   3.670   3.744
   60        0.020   0.054   3.670   3.744
   61       -0.020  -0.054  -3.671  -3.744
   62       -0.020  -0.054  -3.670  -3.744
   63       -0.020  -0.054  -3.670  -3.744
   64       -0.020  -0.054  -3.670  -3.744
tot         -0.000  -0.000   0.000  -0.000

 BZINTS: Fermi energy:  4.964287;688.000000 electrons
         Band energy:***********;  BLOECHL correction:  0.000000