 vasp.5.4.4.18Apr17-6-g9f103f2a35 (build Oct 30 2023 17:30:16) complex

 executed on             LinuxIFC date 2024.06.29  18:43:02

 INCAR:
 POTCAR:    PAW_PBE S 06Sep2000
 POTCAR:     PAW_PBE Cu_pv 06Sep2000
 POTCAR:     PAW_PBE Fe_pv 02Aug2007

   TITEL  = PAW_PBE S 06Sep2000
   POMASS =   32.066; ZVAL   =    6.000    mass and valenz
   ENMAX  =  258.689; ENMIN  =  194.016 eV

   TITEL  = PAW_PBE Cu_pv 06Sep2000
   POMASS =   63.546; ZVAL   =   17.000    mass and valenz
   ENMAX  =  368.648; ENMIN  =  276.486 eV

   TITEL  = PAW_PBE Fe_pv 02Aug2007
   POMASS =   55.847; ZVAL   =   14.000    mass and valenz
   ENMAX  =  293.238; ENMIN  =  219.928 eV

  PAW_PBE S 06Sep2000                   :
   PAW_PBE Cu_pv 06Sep2000              :
   PAW_PBE Fe_pv 02Aug2007              :

 POSCAR: Fe16 Cu16 S32
  positions in direct lattice
 exchange correlation table for  LEXCH =       14
   RHO(1)=    0.500       N(1)  =     2000
   RHO(2)=  100.500       N(2)  =     4000

 ion  position               nearest neighbor table
   1  0.126  0.125  0.124-  37 2.26  41 2.26  61 2.28  49 2.28
   2  0.626  0.125  0.124-  38 2.26  42 2.26  62 2.28  50 2.28
   3  0.126  0.625  0.124-  39 2.26  43 2.26  63 2.28  51 2.28
   4  0.626  0.625  0.124-  40 2.26  44 2.26  64 2.28  52 2.28
   5  0.374  0.375  0.124-  39 2.26  41 2.26  62 2.28  52 2.28
   6  0.874  0.375  0.124-  40 2.26  42 2.26  61 2.28  51 2.28
   7  0.374  0.875  0.124-  37 2.26  43 2.26  64 2.28  50 2.28
   8  0.874  0.875  0.124-  38 2.26  44 2.26  63 2.28  49 2.28
   9  0.125  0.374  0.874-  41 2.26  45 2.26  51 2.28  55 2.28
  10  0.625  0.374  0.874-  42 2.26  46 2.26  52 2.28  56 2.28
  11  0.125  0.874  0.874-  43 2.26  47 2.26  49 2.28  53 2.28
  12  0.625  0.874  0.874-  44 2.26  48 2.26  50 2.28  54 2.28
  13  0.375  0.126  0.874-  41 2.26  46 2.26  50 2.28  53 2.28
  14  0.875  0.126  0.874-  42 2.26  45 2.26  49 2.28  54 2.28
  15  0.375  0.626  0.874-  43 2.26  48 2.26  52 2.28  55 2.28
  16  0.875  0.626  0.874-  44 2.26  47 2.26  51 2.28  56 2.28
  17  0.124  0.125  0.624-  45 2.26  33 2.26  53 2.28  57 2.28
  18  0.624  0.125  0.624-  46 2.26  34 2.26  54 2.28  58 2.28
  19  0.124  0.625  0.624-  47 2.26  35 2.26  55 2.28  59 2.28
  20  0.624  0.625  0.624-  48 2.26  36 2.26  56 2.28  60 2.28
  21  0.376  0.375  0.624-  46 2.26  36 2.26  55 2.28  57 2.28
  22  0.876  0.375  0.624-  45 2.26  35 2.26  56 2.28  58 2.28
  23  0.376  0.875  0.624-  48 2.26  34 2.26  53 2.28  59 2.28
  24  0.876  0.875  0.624-  47 2.26  33 2.26  54 2.28  60 2.28
  25  0.375  0.124  0.374-  34 2.26  37 2.26  57 2.28  62 2.28
  26  0.875  0.124  0.374-  33 2.26  38 2.26  58 2.28  61 2.28
  27  0.375  0.624  0.374-  36 2.26  39 2.26  59 2.28  64 2.28
  28  0.875  0.624  0.374-  35 2.26  40 2.26  60 2.28  63 2.28
  29  0.125  0.376  0.374-  35 2.26  39 2.26  57 2.28  61 2.28
  30  0.625  0.376  0.374-  36 2.26  40 2.26  58 2.28  62 2.28
  31  0.125  0.876  0.374-  33 2.26  37 2.26  59 2.28  63 2.28
  32  0.625  0.876  0.374-  34 2.26  38 2.26  60 2.28  64 2.28
  33  0.000  0.000  0.500-  26 2.26  31 2.26  17 2.26  24 2.26
  34  0.500  0.000  0.500-  25 2.26  32 2.26  18 2.26  23 2.26
  35  0.000  0.500  0.500-  28 2.26  29 2.26  19 2.26  22 2.26
  36  0.500  0.500  0.500-  27 2.26  30 2.26  20 2.26  21 2.26
  37  0.250  0.000  0.250-   1 2.26   7 2.26  25 2.26  31 2.26
  38  0.750  0.000  0.250-   2 2.26   8 2.26  26 2.26  32 2.26
  39  0.250  0.500  0.250-   3 2.26   5 2.26  27 2.26  29 2.26
  40  0.750  0.500  0.250-   4 2.26   6 2.26  28 2.26  30 2.26
  41  0.250  0.250  0.000-   9 2.26  13 2.26   1 2.26   5 2.26
  42  0.750  0.250  0.000-  10 2.26  14 2.26   2 2.26   6 2.26
  43  0.250  0.750  0.000-  11 2.26  15 2.26   3 2.26   7 2.26
  44  0.750  0.750  0.000-  12 2.26  16 2.26   4 2.26   8 2.26
  45  0.000  0.250  0.750-  17 2.26  22 2.26   9 2.26  14 2.26
  46  0.500  0.250  0.750-  18 2.26  21 2.26  10 2.26  13 2.26
  47  0.000  0.750  0.750-  19 2.26  24 2.26  11 2.26  16 2.26
  48  0.500  0.750  0.750-  20 2.26  23 2.26  12 2.26  15 2.26
  49  0.000  0.000  0.001-  11 2.28  14 2.28   1 2.28   8 2.28
  50  0.500  0.000  0.001-  12 2.28  13 2.28   2 2.28   7 2.28
  51  0.000  0.500  0.001-   9 2.28  16 2.28   3 2.28   6 2.28
  52  0.500  0.500  0.001-  10 2.28  15 2.28   4 2.28   5 2.28
  53  0.250  0.000  0.751-  17 2.28  23 2.28  11 2.28  13 2.28
  54  0.750  0.000  0.751-  18 2.28  24 2.28  12 2.28  14 2.28
  55  0.250  0.500  0.751-  19 2.28  21 2.28   9 2.28  15 2.28
  56  0.750  0.500  0.751-  20 2.28  22 2.28  10 2.28  16 2.28
  57  0.250  0.250  0.501-  25 2.28  29 2.28  17 2.28  21 2.28
  58  0.750  0.250  0.501-  26 2.28  30 2.28  18 2.28  22 2.28
  59  0.250  0.750  0.501-  27 2.28  31 2.28  19 2.28  23 2.28
  60  0.750  0.750  0.501-  28 2.28  32 2.28  20 2.28  24 2.28
  61  0.000  0.250  0.251-   1 2.28   6 2.28  26 2.28  29 2.28
  62  0.500  0.250  0.251-   2 2.28   5 2.28  25 2.28  30 2.28
  63  0.000  0.750  0.251-   3 2.28   8 2.28  28 2.28  31 2.28
  64  0.500  0.750  0.251-   4 2.28   7 2.28  27 2.28  32 2.28

  LATTYP: Found a base centered orthorhombic cell.
 ALAT       =    14.7906133533
 B/A-ratio  =     1.0105159963
 C/A-ratio  =     0.7040885156

  Lattice vectors:

 A1 = (  10.5135340000,   0.0549910000,   0.0000000000)
 A2 = (  -0.0549910000, -10.5135340000,   0.0000000000)
 A3 = (   0.0000000000,   0.0000000000, -10.4139010000)

Analysis of symmetry for initial positions (statically):
 Subroutine PRICEL returns following result:

  LATTYP: Found a face centered orthorhombic cell.
 ALAT       =     7.3953066766
 B/A-ratio  =     1.0105159963
 C/A-ratio  =     1.4081770311

[...]

   8 primitive cells build up your supercell.

 Routine SETGRP: Setting up the symmetry group for a
 base centered orthorhombic supercell.

 Subroutine GETGRP returns: Found  4 space group operations
 (whereof  2 operations were pure point group operations)
 out of a pool of  8 trial point group operations.

The static configuration has the point symmetry C_2 .
 The point group associated with its full space group is C_2v.

Analysis of symmetry for dynamics (positions and initial velocities):
 Subroutine PRICEL returns following result:

[...]

The dynamic configuration has the point symmetry C_2 .
 The point group associated with its full space group is C_2v.

Analysis of structural, dynamic, and magnetic symmetry:
 Subroutine PRICEL returns following result:

  LATTYP: Found a face centered orthorhombic cell.
 ALAT       =     7.3953066766
 B/A-ratio  =     1.0105159963
 C/A-ratio  =     1.4081770311

  Lattice vectors:

 A1 = (  -2.6421312500,  -2.6421312500,   5.2069505000)
 A2 = (  -2.6146357500,   2.6146357500,   5.2069505000)
 A3 = (  -5.2567670000,  -0.0274955000,   0.0000000000)

   8 primitive cells build up your supercell.

 Routine SETGRP: Setting up the symmetry group for a
 base centered orthorhombic supercell.

 Subroutine GETGRP returns: Found  4 space group operations
 (whereof  2 operations were pure point group operations)
 out of a pool of  8 trial point group operations.

The magnetic configuration has the point symmetry C_2 .
 The point group associated with its full space group is C_2v.

 Subroutine INISYM returns: Found  4 space group operations
 (whereof  2 operations are pure point group operations),
 and found     8 'primitive' translations

 KPOINTS: Automatic mesh

Automatic generation of k-mesh.
Space group operators:
 irot       det(A)        alpha          n_x          n_y          n_z        tau_x        tau_y        tau_z
    1     1.000000     0.000000     1.000000     0.000000     0.000000     0.000000     0.000000     0.000000
    2     1.000000   180.000000     0.000000     0.000000     1.000000     0.000000     0.000000     0.000000
    3    -1.000000   180.000000     0.707107     0.707107     0.000000    -0.750000    -0.000000     0.750000
    4    -1.000000   180.000000     0.707107    -0.707107     0.000000    -0.750000    -0.000000     0.750000

 Subroutine IBZKPT returns following result:

 Found      6 irreducible k-points:

 Following reciprocal coordinates:
            Coordinates               Weight
  0.000000  0.000000  0.000000      1.000000
  0.500000  0.000000  0.000000      2.000000
  0.500000  0.500000  0.000000      1.000000
  0.000000  0.000000  0.500000      1.000000
  0.500000  0.000000  0.500000      2.000000
  0.500000  0.500000  0.500000      1.000000

 Following cartesian coordinates:
            Coordinates               Weight
  0.000000  0.000000  0.000000      1.000000
  0.047559 -0.000249  0.000000      2.000000
  0.047310  0.047310  0.000000      1.000000
  0.000000  0.000000  0.048013      1.000000
  0.047559 -0.000249  0.048013      2.000000
  0.047310  0.047310  0.048013      1.000000

 Subroutine IBZKPT_HF returns following result:

 Found      8 k-points in 1st BZ
 the following      8 k-points will be used (e.g. in the exchange kernel)
 Following reciprocal coordinates:   # in IRBZ
  0.000000  0.000000  0.000000    0.12500000   1 t-inv F
  0.500000  0.000000  0.000000    0.12500000   2 t-inv F
  0.500000  0.500000  0.000000    0.12500000   3 t-inv F
  0.000000  0.000000  0.500000    0.12500000   4 t-inv F
  0.500000  0.000000  0.500000    0.12500000   5 t-inv F
  0.500000  0.500000  0.500000    0.12500000   6 t-inv F
  0.000000 -0.500000  0.000000    0.12500000   2 t-inv F spinflp
  0.000000 -0.500000  0.500000    0.12500000   5 t-inv F spinflp

 SYSTEM =  CuFeS2
 POSCAR =  Fe16 Cu16 S32

 Startparameter for this run:
   NWRITE =      2    write-flag & timer
   PREC   = accura    normal or accurate (medium, high low for compatibility)
   ISTART =      1    job   : 0-new  1-cont  2-samecut
   ICHARG =      1    charge: 1-file 2-atom 10-const
   ISPIN  =      2    spin polarized calculation?
   LNONCOLLINEAR =      F non collinear calculations
   LSORBIT =      F    spin-orbit coupling
   INIWAV =      1    electr: 0-lowe 1-rand  2-diag
   LASPH  =      F    aspherical Exc in radial PAW
   METAGGA=      F    non-selfconsistent MetaGGA calc.

 Electronic Relaxation 1
   ENCUT  =  700.0 eV  51.45 Ry    7.17 a.u.  22.68 22.68 22.47*2*pi/ulx,y,z
   ENINI  =  700.0     initial cutoff
   ENAUG  =  758.2 eV  augmentation charge cutoff
   NELM   =    500;   NELMIN=  2; NELMDL=  0     # of ELM steps
   EDIFF  = 0.1E-07   stopping-criterion for ELM
   LREAL  =      F    real-space projection
   NLSPLINE    = F    spline interpolate recip. space projectors
   LCOMPAT=      F    compatible to vasp.4.4
   GGA_COMPAT  = T    GGA compatible to vasp.4.4-vasp.4.6
   LMAXPAW     = -100 max onsite density
   LMAXMIX     =    4 max onsite mixed and CHGCAR
   VOSKOWN=      0    Vosko Wilk Nusair interpolation
   ROPT   =    0.00000   0.00000   0.00000
 Ionic relaxation
   EDIFFG = -.1E-04   stopping-criterion for IOM
   NSW    =      0    number of steps for IOM
   NBLOCK =      1;   KBLOCK =      1    inner block; outer block
   IBRION =     -1    ionic relax: 0-MD 1-quasi-New 2-CG
   NFREE  =      0    steps in history (QN), initial steepest desc. (CG)
   ISIF   =      2    stress and relaxation
   IWAVPR =     10    prediction:  0-non 1-charg 2-wave 3-comb
[...]
   0.422E+02 -.109E+00 0.323E+01   -.430E+02 0.106E+00 -.327E+01   0.863E+00 0.335E-02 0.319E-01   0.124E-04 -.102E-05 0.250E-05
   -.422E+02 0.109E+00 0.323E+01   0.430E+02 -.106E+00 -.327E+01   -.863E+00 -.335E-02 0.319E-01   -.124E-04 0.102E-05 0.250E-05
   -.422E+02 0.109E+00 0.323E+01   0.430E+02 -.106E+00 -.327E+01   -.863E+00 -.335E-02 0.319E-01   -.124E-04 0.102E-05 0.250E-05
   -.422E+02 0.109E+00 0.323E+01   0.430E+02 -.106E+00 -.327E+01   -.863E+00 -.335E-02 0.319E-01   -.124E-04 0.102E-05 0.250E-05
   -.422E+02 0.109E+00 0.323E+01   0.430E+02 -.106E+00 -.327E+01   -.863E+00 -.335E-02 0.319E-01   -.124E-04 0.102E-05 0.250E-05
   0.109E+00 -.422E+02 0.323E+01   -.106E+00 0.430E+02 -.327E+01   -.335E-02 -.863E+00 0.319E-01   0.102E-05 -.124E-04 0.250E-05
   0.109E+00 -.422E+02 0.323E+01   -.106E+00 0.430E+02 -.327E+01   -.335E-02 -.863E+00 0.319E-01   0.102E-05 -.124E-04 0.250E-05
   0.109E+00 -.422E+02 0.323E+01   -.106E+00 0.430E+02 -.327E+01   -.335E-02 -.863E+00 0.319E-01   0.102E-05 -.124E-04 0.250E-05
   0.109E+00 -.422E+02 0.323E+01   -.106E+00 0.430E+02 -.327E+01   -.335E-02 -.863E+00 0.319E-01   0.102E-05 -.124E-04 0.250E-05
   -.109E+00 0.422E+02 0.323E+01   0.106E+00 -.430E+02 -.327E+01   0.335E-02 0.863E+00 0.319E-01   -.102E-05 0.124E-04 0.250E-05
   -.109E+00 0.422E+02 0.323E+01   0.106E+00 -.430E+02 -.327E+01   0.335E-02 0.863E+00 0.319E-01   -.102E-05 0.124E-04 0.250E-05
   -.109E+00 0.422E+02 0.323E+01   0.106E+00 -.430E+02 -.327E+01   0.335E-02 0.863E+00 0.319E-01   -.102E-05 0.124E-04 0.250E-05
   -.109E+00 0.422E+02 0.323E+01   0.106E+00 -.430E+02 -.327E+01   0.335E-02 0.863E+00 0.319E-01   -.102E-05 0.124E-04 0.250E-05
   -.422E+02 0.109E+00 0.323E+01   0.430E+02 -.106E+00 -.327E+01   -.863E+00 -.335E-02 0.319E-01   -.124E-04 0.102E-05 0.250E-05
   -.422E+02 0.109E+00 0.323E+01   0.430E+02 -.106E+00 -.327E+01   -.863E+00 -.335E-02 0.319E-01   -.124E-04 0.102E-05 0.250E-05
   -.422E+02 0.109E+00 0.323E+01   0.430E+02 -.106E+00 -.327E+01   -.863E+00 -.335E-02 0.319E-01   -.124E-04 0.102E-05 0.250E-05
   -.422E+02 0.109E+00 0.323E+01   0.430E+02 -.106E+00 -.327E+01   -.863E+00 -.335E-02 0.319E-01   -.124E-04 0.102E-05 0.250E-05
   0.422E+02 -.109E+00 0.323E+01   -.430E+02 0.106E+00 -.327E+01   0.863E+00 0.335E-02 0.319E-01   0.124E-04 -.102E-05 0.250E-05
   0.422E+02 -.109E+00 0.323E+01   -.430E+02 0.106E+00 -.327E+01   0.863E+00 0.335E-02 0.319E-01   0.124E-04 -.102E-05 0.250E-05
   0.422E+02 -.109E+00 0.323E+01   -.430E+02 0.106E+00 -.327E+01   0.863E+00 0.335E-02 0.319E-01   0.124E-04 -.102E-05 0.250E-05
   0.422E+02 -.109E+00 0.323E+01   -.430E+02 0.106E+00 -.327E+01   0.863E+00 0.335E-02 0.319E-01   0.124E-04 -.102E-05 0.250E-05
   0.109E+00 -.422E+02 0.323E+01   -.106E+00 0.430E+02 -.327E+01   -.335E-02 -.863E+00 0.319E-01   0.102E-05 -.124E-04 0.250E-05
   0.109E+00 -.422E+02 0.323E+01   -.106E+00 0.430E+02 -.327E+01   -.335E-02 -.863E+00 0.319E-01   0.102E-05 -.124E-04 0.250E-05
   0.109E+00 -.422E+02 0.323E+01   -.106E+00 0.430E+02 -.327E+01   -.335E-02 -.863E+00 0.319E-01   0.102E-05 -.124E-04 0.250E-05
   0.109E+00 -.422E+02 0.323E+01   -.106E+00 0.430E+02 -.327E+01   -.335E-02 -.863E+00 0.319E-01   0.102E-05 -.124E-04 0.250E-05
   -.109E+00 0.422E+02 0.323E+01   0.106E+00 -.430E+02 -.327E+01   0.335E-02 0.863E+00 0.319E-01   -.102E-05 0.124E-04 0.250E-05
   -.109E+00 0.422E+02 0.323E+01   0.106E+00 -.430E+02 -.327E+01   0.335E-02 0.863E+00 0.319E-01   -.102E-05 0.124E-04 0.250E-05
   -.109E+00 0.422E+02 0.323E+01   0.106E+00 -.430E+02 -.327E+01   0.335E-02 0.863E+00 0.319E-01   -.102E-05 0.124E-04 0.250E-05
   -.109E+00 0.422E+02 0.323E+01   0.106E+00 -.430E+02 -.327E+01   0.335E-02 0.863E+00 0.319E-01   -.102E-05 0.124E-04 0.250E-05
   -.838E-07 0.264E-07 -.381E+01   0.142E-12 0.163E-12 0.365E+01   -.151E-24 -.142E-24 0.155E+00   -.138E-12 -.186E-12 -.196E-04
   -.838E-07 0.264E-07 -.381E+01   0.173E-12 0.114E-12 0.365E+01   0.778E-25 -.258E-25 0.155E+00   -.338E-12 -.807E-13 -.196E-04
   -.838E-07 0.264E-07 -.381E+01   0.142E-12 0.178E-12 0.365E+01   -.185E-24 0.000E+00 0.155E+00   -.993E-14 -.150E-12 -.196E-04
   -.838E-07 0.264E-07 -.381E+01   0.173E-12 0.114E-12 0.365E+01   -.286E-24 0.775E-25 0.155E+00   -.408E-12 -.217E-12 -.196E-04
   0.264E-07 -.838E-07 -.381E+01   0.114E-12 0.114E-12 0.365E+01   0.130E-24 0.336E-24 0.155E+00   -.348E-12 0.584E-13 -.196E-04
   0.264E-07 -.838E-07 -.381E+01   0.171E-12 0.114E-12 0.365E+01   0.109E-25 -.194E-24 0.155E+00   -.262E-12 0.263E-12 -.196E-04
   0.264E-07 -.838E-07 -.381E+01   0.142E-12 0.114E-12 0.365E+01   -.783E-25 0.149E-24 0.155E+00   -.509E-12 -.337E-12 -.196E-04
   0.264E-07 -.838E-07 -.381E+01   0.227E-12 0.114E-12 0.365E+01   0.637E-25 0.258E-24 0.155E+00   -.114E-12 -.269E-12 -.196E-04
   -.838E-07 0.264E-07 -.381E+01   0.121E-12 -.443E-13 0.365E+01   -.168E-24 0.582E-25 0.155E+00   -.501E-12 -.346E-12 -.196E-04
   -.838E-07 0.264E-07 -.381E+01   0.121E-12 -.514E-13 0.365E+01   0.252E-24 0.116E-24 0.155E+00   -.162E-12 -.151E-12 -.196E-04
   -.838E-07 0.264E-07 -.381E+01   0.853E-13 -.533E-13 0.365E+01   0.987E-25 -.103E-24 0.155E+00   -.442E-12 -.956E-13 -.196E-04
   -.838E-07 0.264E-07 -.381E+01   0.142E-12 -.462E-13 0.365E+01   -.787E-25 -.323E-25 0.155E+00   -.238E-12 -.413E-14 -.196E-04
   0.264E-07 -.838E-07 -.381E+01   0.153E-12 -.411E-13 0.365E+01   0.709E-25 -.207E-24 0.155E+00   -.237E-12 0.520E-13 -.196E-04
   0.264E-07 -.838E-07 -.381E+01   0.990E-13 -.979E-13 0.365E+01   0.756E-25 0.103E-24 0.155E+00   -.176E-12 -.367E-13 -.196E-04
   0.264E-07 -.838E-07 -.381E+01   0.167E-12 -.356E-13 0.365E+01   -.175E-24 0.439E-24 0.155E+00   -.228E-12 -.149E-12 -.196E-04
   0.264E-07 -.838E-07 -.381E+01   0.113E-12 0.212E-13 0.365E+01   -.632E-25 0.155E-24 0.155E+00   -.225E-12 0.803E-13 -.196E-04
   0.748E-09 -.234E-07 -.307E+01   -.113E-12 0.711E-13 0.288E+01   -.616E-26 -.517E-25 0.185E+00   -.195E-12 0.128E-12 0.187E-05
   0.751E-09 -.234E-07 -.307E+01   -.251E-13 0.995E-13 0.288E+01   0.174E-25 -.905E-25 0.185E+00   0.213E-13 0.614E-13 0.187E-05
   0.748E-09 -.234E-07 -.307E+01   -.491E-13 0.163E-12 0.288E+01   0.579E-25 -.856E-25 0.185E+00   -.229E-12 -.269E-12 0.187E-05
   0.751E-09 -.234E-07 -.307E+01   -.322E-13 0.156E-12 0.288E+01   0.133E-24 -.258E-25 0.185E+00   0.535E-13 -.252E-12 0.187E-05
   -.234E-07 0.748E-09 -.307E+01   -.121E-12 0.284E-13 0.288E+01   -.104E-25 0.149E-24 0.185E+00   -.357E-13 -.217E-12 0.187E-05
   -.234E-07 0.748E-09 -.307E+01   -.675E-13 0.284E-13 0.288E+01   -.249E-25 0.129E-25 0.185E+00   -.222E-12 -.803E-13 0.187E-05
   -.234E-07 0.761E-09 -.307E+01   -.995E-13 0.782E-13 0.288E+01   -.220E-24 -.517E-25 0.185E+00   -.181E-12 -.262E-12 0.187E-05
   -.234E-07 0.763E-09 -.307E+01   -.604E-13 0.142E-13 0.288E+01   -.137E-24 0.258E-25 0.185E+00   -.141E-12 -.186E-12 0.187E-05
   0.749E-09 -.234E-07 -.307E+01   -.639E-13 0.666E-15 0.288E+01   0.137E-24 0.323E-26 0.185E+00   -.490E-13 0.722E-13 0.187E-05
   0.752E-09 -.234E-07 -.307E+01   -.639E-13 0.555E-15 0.288E+01   -.109E-24 -.775E-25 0.185E+00   -.297E-12 0.186E-13 0.187E-05
   0.749E-09 -.234E-07 -.307E+01   -.128E-12 0.607E-13 0.288E+01   0.871E-26 0.872E-25 0.185E+00   -.102E-12 -.177E-12 0.187E-05
   0.752E-09 -.234E-07 -.307E+01   -.568E-13 0.677E-13 0.288E+01   0.180E-24 -.142E-24 0.185E+00   -.265E-12 -.126E-12 0.187E-05
   -.234E-07 0.749E-09 -.307E+01   -.174E-12 -.672E-13 0.288E+01   0.566E-25 0.000E+00 0.185E+00   -.958E-13 -.126E-12 0.187E-05
   -.234E-07 0.712E-09 -.307E+01   -.969E-13 -.124E-12 0.288E+01   0.121E-24 -.129E-25 0.185E+00   -.683E-13 -.246E-12 0.187E-05
   -.234E-07 0.750E-09 -.307E+01   -.138E-12 -.135E-12 0.288E+01   -.273E-25 0.646E-26 0.185E+00   -.346E-13 -.176E-12 0.187E-05
   -.234E-07 0.758E-09 -.307E+01   -.888E-13 -.714E-13 0.288E+01   -.120E-24 0.646E-26 0.185E+00   -.102E-12 -.579E-13 0.187E-05
   -.606E-07 -.605E-07 -.646E+01   0.624E-13 0.794E-13 -.981E-12   0.110E-15 -.122E-14 0.646E+01   -.733E-11 -.169E-11 -.204E-03

 POSITION                                       TOTAL-FORCE (eV/Angst)
      1.33320      1.32183      1.29566         0.000188     -0.000173     -0.000317
      6.58997      1.34933      1.29566         0.000188     -0.000173     -0.000317
      1.36070      6.57860      1.29566         0.000188     -0.000173     -0.000317
      6.61746      6.60610      1.29566         0.000188     -0.000173     -0.000317
      3.95106      3.96243      1.29566        -0.000188      0.000173     -0.000317
      9.20783      3.98992      1.29566        -0.000188      0.000173     -0.000317
      3.97856      9.21920      1.29566        -0.000188      0.000173     -0.000317
      9.23532      9.24669      1.29566        -0.000188      0.000173     -0.000317
      1.33405      3.93731      9.10608         0.000173     -0.000188     -0.000317
      6.59081      3.96481      9.10608         0.000173     -0.000188     -0.000317
      1.36154      9.19408      9.10608         0.000173     -0.000188     -0.000317
      6.61831      9.22158      9.10608         0.000173     -0.000188     -0.000317
      3.95022      1.34695      9.10608        -0.000173      0.000188     -0.000317
      9.20698      1.37445      9.10608        -0.000173      0.000188     -0.000317
      3.97771      6.60372      9.10608        -0.000173      0.000188     -0.000317
      9.23448      6.63121      9.10608        -0.000173      0.000188     -0.000317
      1.30893      1.32030      6.50261        -0.000188      0.000173     -0.000317
      6.56570      1.34779      6.50261        -0.000188      0.000173     -0.000317
      1.33642      6.57706      6.50261        -0.000188      0.000173     -0.000317
      6.59319      6.60456      6.50261        -0.000188      0.000173     -0.000317
      3.97533      3.96396      6.50261         0.000188     -0.000173     -0.000317
      9.23210      3.99146      6.50261         0.000188     -0.000173     -0.000317
      4.00283      9.22073      6.50261         0.000188     -0.000173     -0.000317
      9.25960      9.24823      6.50261         0.000188     -0.000173     -0.000317
      3.94868      1.32268      3.89913         0.000173     -0.000188     -0.000317
      9.20545      1.35017      3.89913         0.000173     -0.000188     -0.000317
      3.97618      6.57944      3.89913         0.000173     -0.000188     -0.000317
      9.23294      6.60694      3.89913         0.000173     -0.000188     -0.000317
      1.33558      3.96159      3.89913        -0.000173      0.000188     -0.000317
      6.59235      3.98908      3.89913        -0.000173      0.000188     -0.000317
      1.36308      9.21835      3.89913        -0.000173      0.000188     -0.000317
      6.61984      9.24585      3.89913        -0.000173      0.000188     -0.000317
      0.00000      0.00000      5.21213         0.000000     -0.000000      0.000100
      5.25677      0.02750      5.21213         0.000000     -0.000000      0.000100
      0.02750      5.25677      5.21213         0.000000     -0.000000      0.000100
      5.28426      5.28426      5.21213         0.000000     -0.000000      0.000100
      2.62838      0.01375      2.60865         0.000000     -0.000000      0.000100
      7.88515      0.04124      2.60865         0.000000     -0.000000      0.000100
      2.65588      5.27051      2.60865         0.000000     -0.000000      0.000100
      7.91265      5.29801      2.60865         0.000000     -0.000000      0.000100
      2.64213      2.64213      0.00518         0.000000     -0.000000      0.000100
      7.89890      2.66963      0.00518         0.000000     -0.000000      0.000100
      2.66963      7.89890      0.00518         0.000000     -0.000000      0.000100
      7.92639      7.92639      0.00518         0.000000     -0.000000      0.000100
      0.01375      2.62838      7.81560         0.000000     -0.000000      0.000100
      5.27051      2.65588      7.81560         0.000000     -0.000000      0.000100
      0.04124      7.88515      7.81560         0.000000     -0.000000      0.000100
      5.29801      7.91265      7.81560         0.000000     -0.000000      0.000100
      0.00000      0.00000      0.00698         0.000000     -0.000000      0.000534
      5.25677      0.02750      0.00698         0.000000     -0.000000      0.000534
      0.02750      5.25677      0.00698         0.000000     -0.000000      0.000534
      5.28426      5.28426      0.00698         0.000000     -0.000000      0.000534
      2.62838      0.01375      7.81740         0.000000     -0.000000      0.000534
      7.88515      0.04124      7.81740         0.000000     -0.000000      0.000534
      2.65588      5.27051      7.81740         0.000000     -0.000000      0.000534
      7.91265      5.29801      7.81740         0.000000     -0.000000      0.000534
      2.64213      2.64213      5.21393         0.000000     -0.000000      0.000534
      7.89890      2.66963      5.21393         0.000000     -0.000000      0.000534
      2.66963      7.89890      5.21393         0.000000     -0.000000      0.000534
      7.92639      7.92639      5.21393         0.000000     -0.000000      0.000534
      0.01375      2.62838      2.61045         0.000000     -0.000000      0.000534
      5.27051      2.65588      2.61045         0.000000     -0.000000      0.000534
      0.04124      7.88515      2.61045         0.000000     -0.000000      0.000534
      5.29801      7.91265      2.61045         0.000000     -0.000000      0.000534
    total drift:                               -0.000000     -0.000000     -0.004918

  FREE ENERGIE OF THE ION-ELECTRON SYSTEM (eV)
  free  energy   TOTEN  =      -328.11249635 eV

  energy  without entropy=     -328.11249635  energy(sigma->0) =     -328.11249635

 writing wavefunctions

 total charge

[...]

 magnetization (x)

# of ion       s       p       d       tot
    1       -0.000  -0.003   0.000  -0.003
    2       -0.000  -0.003   0.000  -0.003
    3       -0.000  -0.003   0.000  -0.003
    4       -0.000  -0.003   0.000  -0.003
    5       -0.000  -0.003   0.000  -0.003
    6       -0.000  -0.003   0.000  -0.003
    7       -0.000  -0.003   0.000  -0.003
    8       -0.000  -0.003   0.000  -0.003
    9        0.000   0.003   0.000   0.003
   10        0.000   0.003   0.000   0.003
   11        0.000   0.003   0.000   0.003
   12        0.000   0.003   0.000   0.003
   13        0.000   0.003   0.000   0.003
   14        0.000   0.003   0.000   0.003
   15        0.000   0.003   0.000   0.003
   16        0.000   0.003   0.000   0.003
   17       -0.000  -0.003   0.000  -0.003
   18       -0.000  -0.003   0.000  -0.003
   19       -0.000  -0.003   0.000  -0.003
   20       -0.000  -0.003   0.000  -0.003
   21       -0.000  -0.003   0.000  -0.003
   22       -0.000  -0.003   0.000  -0.003
   23       -0.000  -0.003   0.000  -0.003
   24       -0.000  -0.003   0.000  -0.003
   25        0.000   0.003   0.000   0.003
   26        0.000   0.003   0.000   0.003
   27        0.000   0.003   0.000   0.003
   28        0.000   0.003   0.000   0.003
   29        0.000   0.003   0.000   0.003
   30        0.000   0.003   0.000   0.003
   31        0.000   0.003   0.000   0.003
   32        0.000   0.003   0.000   0.003
   33        0.000   0.000  -0.001   0.000
   34        0.000   0.000  -0.001   0.000
   35        0.000   0.000  -0.001   0.000
   36        0.000   0.000  -0.001   0.000
   37       -0.000  -0.000   0.001  -0.000
   38       -0.000  -0.000   0.001  -0.000
   39       -0.000  -0.000   0.001  -0.000
   40       -0.000  -0.000   0.001  -0.000
   41        0.000   0.000  -0.001   0.000
   42        0.000   0.000  -0.001   0.000
   43        0.000   0.000  -0.001   0.000
   44        0.000   0.000  -0.001   0.000
   45       -0.000  -0.000   0.001  -0.000
   46       -0.000  -0.000   0.001  -0.000
   47       -0.000  -0.000   0.001  -0.000
   48       -0.000  -0.000   0.001  -0.000
   49        0.020   0.054   3.671   3.744
   50        0.020   0.054   3.671   3.744
   51        0.020   0.054   3.671   3.744
   52        0.020   0.054   3.671   3.744
   53       -0.020  -0.054  -3.671  -3.744
   54       -0.020  -0.054  -3.671  -3.744
   55       -0.020  -0.054  -3.671  -3.744
   56       -0.020  -0.054  -3.671  -3.744
   57        0.020   0.054   3.671   3.744
   58        0.020   0.054   3.671   3.744
   59        0.020   0.054   3.671   3.744
   60        0.020   0.054   3.671   3.744
   61       -0.020  -0.054  -3.671  -3.744
   62       -0.020  -0.054  -3.671  -3.744
   63       -0.020  -0.054  -3.671  -3.744
   64       -0.020  -0.054  -3.671  -3.744
tot         -0.000   0.000  -0.000  -0.000