 vasp.5.4.4.18Apr17-6-g9f103f2a35 (build Oct 04 2018 15:53:47) complex

 executed on             LinuxIFC date 2022.10.07  15:46:26

 INCAR:
 POTCAR:    PAW_PBE S 06Sep2000
 POTCAR:     PAW_PBE Cu_pv 06Sep2000
 POTCAR:     PAW_PBE Fe_pv 02Aug2007
 POTCAR:    PAW_PBE S 06Sep2000
   VRHFIN =S : s2p4

   TITEL  = PAW_PBE S 06Sep2000
   POMASS =   32.066; ZVAL   =    6.000    mass and valenz
   ENMAX  =  258.689; ENMIN  =  194.016 eV

   TITEL  = PAW_PBE Cu_pv 06Sep2000
   POMASS =   63.546; ZVAL   =   17.000    mass and valenz
   ENMAX  =  368.648; ENMIN  =  276.486 eV

   TITEL  = PAW_PBE Fe_pv 02Aug2007
   POMASS =   55.847; ZVAL   =   14.000    mass and valenz
   ENMAX  =  293.238; ENMIN  =  219.928 eV

  PAW_PBE S 06Sep2000                   :
   PAW_PBE Cu_pv 06Sep2000              :
   PAW_PBE Fe_pv 02Aug2007              :

 POSCAR: sm_isp_SD0310437-standardized_unitcell
  positions in direct lattice
  velocities in cartesian coordinates
 exchange correlation table for  LEXCH =       14
   RHO(1)=    0.500       N(1)  =     2000
   RHO(2)=  100.500       N(2)  =     4000

 ion  position               nearest neighbor table
   1  0.253  0.250  0.125-  10 2.24  11 2.24  13 2.26  16 2.26
   2  0.747  0.750  0.125-  10 2.24  11 2.24  13 2.26  16 2.26
   3  0.250  0.747  0.875-  11 2.24  12 2.24  13 2.26  14 2.26
   4  0.750  0.253  0.875-  11 2.24  12 2.24  13 2.26  14 2.26
   5  0.247  0.250  0.625-   9 2.24  12 2.24  14 2.26  15 2.26
   6  0.753  0.750  0.625-   9 2.24  12 2.24  14 2.26  15 2.26
   7  0.750  0.247  0.375-   9 2.24  10 2.24  15 2.26  16 2.26
   8  0.250  0.753  0.375-   9 2.24  10 2.24  15 2.26  16 2.26
   9  0.000  0.000  0.500-   5 2.24   7 2.24   6 2.24   8 2.24
  10  0.500  0.000  0.250-   7 2.24   1 2.24   2 2.24   8 2.24
  11  0.500  0.500  0.000-   1 2.24   4 2.24   3 2.24   2 2.24
  12  0.000  0.500  0.750-   5 2.24   4 2.24   3 2.24   6 2.24
  13  0.000  0.000  0.000-   2 2.26   3 2.26   1 2.26   4 2.26
  14  0.500  0.000  0.750-   3 2.26   6 2.26   4 2.26   5 2.26
  15  0.500  0.500  0.500-   6 2.26   8 2.26   7 2.26   5 2.26
  16  0.000  0.500  0.250-   2 2.26   8 2.26   1 2.26   7 2.26

  LATTYP: Found a simple tetragonal cell.
 ALAT       =     4.9958463727
 C/A-ratio  =     2.2403509917

  Lattice vectors:

 A1 = (   4.9958463727,   0.0000000000,   0.0000000000)
 A2 = (   0.0000000000,   4.9958463727,   0.0000000000)
 A3 = (   0.0000000000,   0.0000000000,  11.1924493753)

Analysis of symmetry for initial positions (statically):
 Subroutine PRICEL returns following result:

  LATTYP: Found a body centered tetragonal cell.
 ALAT       =     4.9958463727
 C/A-ratio  =     2.2403509917

[...]

   2 primitive cells build up your supercell.

 Routine SETGRP: Setting up the symmetry group for a
 simple tetragonal supercell.

 Subroutine GETGRP returns: Found  8 space group operations
 (whereof  4 operations were pure point group operations)
 out of a pool of 16 trial point group operations.

The static configuration has the point symmetry S_4 .
 The point group associated with its full space group is D_2d.

Analysis of symmetry for dynamics (positions and initial velocities):
 Subroutine PRICEL returns following result:

[...]

The dynamic configuration has the point symmetry S_4 .
 The point group associated with its full space group is D_2d.

Analysis of structural, dynamic, and magnetic symmetry:
 Subroutine PRICEL returns following result:

  LATTYP: Found a body centered tetragonal cell.
 ALAT       =     4.9958463727
 C/A-ratio  =     2.2403509917

  Lattice vectors:

 A1 = (   2.4979231864,  -2.4979231864,   5.5962246877)
 A2 = (  -2.4979231864,   2.4979231864,   5.5962246877)
 A3 = (  -2.4979231864,  -2.4979231864,  -5.5962246877)

   2 primitive cells build up your supercell.

 Routine SETGRP: Setting up the symmetry group for a
 simple tetragonal supercell.

 Subroutine GETGRP returns: Found  8 space group operations
 (whereof  4 operations were pure point group operations)
 out of a pool of 16 trial point group operations.

The (compounded) configuration has the point symmetry S_4 .
 The point group associated with its full space group is D_2d.

 Subroutine INISYM returns: Found  8 space group operations
 (whereof  4 operations are pure point group operations),
 and found     2 'primitive' translations

 KPOINTS: Automatic mesh

Automatic generation of k-mesh.
Space group operators:
 irot       det(A)        alpha          n_x          n_y          n_z        tau_x        tau_y        tau_z
    1     1.000000     0.000001     1.000000     0.000000     0.000000     0.000000     0.000000     0.000000
    2    -1.000000    90.000000     0.000000     0.000000    -1.000000     0.000000     0.000000     0.000000
    3     1.000000   180.000000     0.000000     0.000000     1.000000     0.000000     0.000000     0.000000
    4    -1.000000    90.000000     0.000000     0.000000     1.000000     0.000000     0.000000     0.000000
    5     1.000000   180.000000     0.000000     1.000000     0.000000     0.000000    -0.500000     0.250000
    6    -1.000000   180.000000     0.707107     0.707107     0.000000     0.000000    -0.500000     0.250000
    7     1.000000   180.000000     1.000000     0.000000     0.000000     0.000000    -0.500000     0.250000
    8    -1.000000   180.000000     0.707107    -0.707107     0.000000     0.000000    -0.500000     0.250000

 Subroutine IBZKPT returns following result:

 Found     23 irreducible k-points:

 Following reciprocal coordinates:
            Coordinates               Weight
  0.000000  0.000000  0.000000      1.000000
  0.166667  0.000000  0.000000      4.000000
  0.333333  0.000000  0.000000      4.000000
  0.500000  0.000000  0.000000      2.000000
  0.166667  0.166667  0.000000      4.000000
  0.333333  0.166667  0.000000      8.000000
  0.500000  0.166667  0.000000      4.000000
  0.333333  0.333333  0.000000      4.000000
  0.500000  0.333333  0.000000      4.000000
  0.500000  0.500000  0.000000      1.000000
  0.000000  0.000000  0.333333      2.000000
  0.166667  0.000000  0.333333      8.000000
  0.333333  0.000000  0.333333      8.000000
  0.500000  0.000000  0.333333      4.000000
  0.166667  0.166667  0.333333      4.000000
  0.333333  0.166667  0.333333      8.000000
  0.500000  0.166667  0.333333      8.000000
 -0.333333  0.166667  0.333333      8.000000
 -0.166667  0.166667  0.333333      4.000000
  0.333333  0.333333  0.333333      4.000000
  0.500000  0.333333  0.333333      8.000000
 -0.333333  0.333333  0.333333      4.000000
  0.500000  0.500000  0.333333      2.000000

 Following cartesian coordinates:
            Coordinates               Weight
  0.000000  0.000000  0.000000      1.000000
  0.033361  0.000000  0.000000      4.000000
  0.066722  0.000000  0.000000      4.000000
  0.100083  0.000000  0.000000      2.000000
  0.033361  0.033361  0.000000      4.000000
  0.066722  0.033361  0.000000      8.000000
  0.100083  0.033361  0.000000      4.000000
  0.066722  0.066722  0.000000      4.000000
  0.100083  0.066722  0.000000      4.000000
  0.100083  0.100083  0.000000      1.000000
  0.000000  0.000000  0.029782      2.000000
  0.033361  0.000000  0.029782      8.000000
  0.066722  0.000000  0.029782      8.000000
  0.100083  0.000000  0.029782      4.000000
  0.033361  0.033361  0.029782      4.000000
  0.066722  0.033361  0.029782      8.000000
  0.100083  0.033361  0.029782      8.000000
 -0.066722  0.033361  0.029782      8.000000
 -0.033361  0.033361  0.029782      4.000000
  0.066722  0.066722  0.029782      4.000000
  0.100083  0.066722  0.029782      8.000000
 -0.066722  0.066722  0.029782      4.000000
  0.100083  0.100083  0.029782      2.000000

 TETIRR: Found    274 inequivalent tetrahedra from      648

 SYSTEM =  CuFeS2
 POSCAR =  sm_isp_SD0310437-standardized_unitcell

 Startparameter for this run:
   NWRITE =      2    write-flag & timer
   PREC   = accura    normal or accurate (medium, high low for compatibility)
   ISTART =      1    job   : 0-new  1-cont  2-samecut
   ICHARG =      1    charge: 1-file 2-atom 10-const
   ISPIN  =      1    spin polarized calculation?
   LNONCOLLINEAR =      T non collinear calculations
   LSORBIT =      F    spin-orbit coupling
   INIWAV =      1    electr: 0-lowe 1-rand  2-diag
   LASPH  =      T    aspherical Exc in radial PAW
   METAGGA=      F    non-selfconsistent MetaGGA calc.

 Electronic Relaxation 1
   ENCUT  =  700.0 eV  51.45 Ry    7.17 a.u.  10.78 10.78 24.15*2*pi/ulx,y,z
   ENINI  =  700.0     initial cutoff
   ENAUG  =  758.2 eV  augmentation charge cutoff
   NELM   =    200;   NELMIN=  2; NELMDL=  0     # of ELM steps
   EDIFF  = 0.1E-07   stopping-criterion for ELM
   LREAL  =      F    real-space projection
   NLSPLINE    = F    spline interpolate recip. space projectors
   LCOMPAT=      F    compatible to vasp.4.4
   GGA_COMPAT  = T    GGA compatible to vasp.4.4-vasp.4.6
   LMAXPAW     = -100 max onsite density
   LMAXMIX     =    4 max onsite mixed and CHGCAR
   VOSKOWN=      0    Vosko Wilk Nusair interpolation
   ROPT   =    0.00000   0.00000   0.00000
 Ionic relaxation
   EDIFFG = -.1E-04   stopping-criterion for IOM
   NSW    =      0    number of steps for IOM
   NBLOCK =      1;   KBLOCK =      1    inner block; outer block
   IBRION =     -1    ionic relax: 0-MD 1-quasi-New 2-CG
   NFREE  =      0    steps in history (QN), initial steepest desc. (CG)
   ISIF   =      2    stress and relaxation
   IWAVPR =     10    prediction:  0-non 1-charg 2-wave 3-comb
   ISYM   =      1    0-nonsym 1-usesym 2-fastsym
   LCORR  =      T    Harris-Foulkes like correction to forces

   POTIM  = 0.1000    time-step for ionic-motion
   TEIN   =    0.0    initial temperature
   TEBEG  =    0.0;   TEEND  =   0.0 temperature during run
   SMASS  =  -3.00    Nose mass-parameter (am)
   estimated Nose-frequenzy (Omega)   =  0.10E-29 period in steps =****** mass=  -0.570E-27a.u.
   SCALEE = 1.0000    scale energy and forces
   NPACO  =    256;   APACO  = 16.0  distance and # of slots for P.C.
   PSTRESS=    0.0 pullay stress

  Mass of Ions in am
   POMASS =  32.07 63.55 55.85
  Ionic Valenz
   ZVAL   =   6.00 17.00 14.00
  Atomic Wigner-Seitz radii
  virtual crystal weights
   VCA    =   1.00  1.00  1.00
   NELECT =     172.0000    total number of electrons
   NUPDOWN=      -1.0000    fix difference up-down

 DOS related values:
   EMIN   =  10.00;   EMAX   =-10.00  energy-range for DOS
   EFERMI =   0.00
   ISMEAR =    -5;   SIGMA  =   0.03  broadening in eV -4-tet -1-fermi 0-gaus

 Electronic relaxation 2 (details)
   IALGO  =     58    algorithm
   LDIAG  =      T    sub-space diagonalisation (order eigenvalues)
   LSUBROT=      F    optimize rotation matrix (better conditioning)
   TURBO    =      0    0=normal 1=particle mesh
   IRESTART =      0    0=no restart 2=restart with 2 vectors
   NREBOOT  =      0    no. of reboots
   NMIN     =      0    reboot dimension
   EREF     =   0.00    reference energy to select bands
   IMIX   =      4    mixing-type and parameters
     AMIX     =   0.40;   BMIX     =  1.00
     AMIX_MAG =   1.60;   BMIX_MAG =  1.00
     AMIN     =   0.10
[...]

 Broyden mixing: mesh for mixing (old mesh)
   NGX = 21   NGY = 21   NGZ = 49
  (NGX  = 96   NGY  = 96   NGZ  =196)
  gives a total of  21609 points

 initial charge density was supplied:
 number of electron     171.9999939 magnetization       0.0000000     -0.0000000      0.0000000
 charge density for first step will be calculated from the start-wavefunctions

 BZINTS: Fermi energy:  5.379846;172.000000 electrons
         Band energy:***********;  BLOECHL correction:  0.000000
 Maximum index for augmentation-charges          957 (set IRDMAX)

 initial charge from wavefunction
 First call to EWALD:  gamma=   0.271
 Maximum number of real-space cells 3x 3x 2
 Maximum number of reciprocal cells 2x 2x 4

--------------------------------------- Iteration      1(   1)  ---------------------------------------

 BZINTS: Fermi energy:  5.379845;172.000000 electrons
         Band energy:***********;  BLOECHL correction:  0.000000
 BZINTS: Fermi energy:  5.379846;172.000000 electrons
         Band energy:***********;  BLOECHL correction:  0.000000

 eigenvalue-minimisations  :     0
 total energy-change (2. order) :-0.8173723E+02  (-0.1546146E-08)
 number of electron     171.9999939 magnetization       0.0000000      0.0000000      0.0000000
 augmentation part       70.5393328 magnetization       0.0000003     -0.0000002     -0.0003818

 Free energy of the ion-electron system (eV)
  alpha Z        PSCENC =       606.58317865
  Ewald energy   TEWEN  =    -15790.66309732
  -Hartree energ DENC   =    -10624.97300585
  -exchange      EXHF   =         0.00000000
  -V(xc)+E(xc)   XCENC  =       822.45972884
  PAW double counting   =     28315.18178759   -29239.52549810
  entropy T*S    EENTRO =         0.00000000
  eigenvalues    EBANDS =     -2675.81660194
  atomic energy  EATOM  =     28505.01627691
  free energy    TOTEN  =       -81.73723123 eV

  energy without entropy =      -81.73723123  energy(sigma->0) =      -81.73723123

[...]

--------------------------------------- Iteration      1(  40)  ---------------------------------------

 BZINTS: Fermi energy:  5.379845;172.000000 electrons
         Band energy:***********;  BLOECHL correction:  0.000000
 BZINTS: Fermi energy:  5.379845;172.000000 electrons
         Band energy:***********;  BLOECHL correction:  0.000000

 eigenvalue-minimisations  :     0
 total energy-change (2. order) :-0.9938958E-08  (-0.4947240E-11)
 number of electron     171.9999939 magnetization       0.0000000      0.0000000      0.0000000
 augmentation part       70.5393327 magnetization       0.0000001     -0.0000001     -0.0003818

 Free energy of the ion-electron system (eV)
  alpha Z        PSCENC =       606.58317865
  Ewald energy   TEWEN  =    -15790.66309732
  -Hartree energ DENC   =    -10624.97292216
  -exchange      EXHF   =         0.00000000
  -V(xc)+E(xc)   XCENC  =       822.45972179
  PAW double counting   =     28315.18146428   -29239.52516867
  entropy T*S    EENTRO =         0.00000000
  eigenvalues    EBANDS =     -2675.81668685
  atomic energy  EATOM  =     28505.01627691
  free energy    TOTEN  =       -81.73723337 eV

  energy without entropy =      -81.73723337  energy(sigma->0) =      -81.73723337

  average scaling for gradient   0.8926

 average (electrostatic) potential at core
  the test charge radii are     0.9698  0.8297  0.9500
  (the norm of the test charge is              1.0000)
       1 -86.3334       2 -86.3334       3 -86.3334       4 -86.3334       5 -86.3334
       6 -86.3334       7 -86.3334       8 -86.3334       9 -80.5130      10 -80.5130
      11 -80.5130      12 -80.5130      13 -79.8702      14 -79.8702      15 -79.8702
      16 -79.8702

 E-fermi :   5.3798     XC(G=0): -10.6204     alpha+bet :-10.8605

 k-point     1 :       0.0000    0.0000    0.0000
  band No.  band energies     occupation
      1     -64.1613      1.00000
      2     -64.1613      1.00000
      3     -64.1612      1.00000
      4     -64.1612      1.00000
      5     -64.0984      1.00000
      6     -64.0984      1.00000
      7     -64.0983      1.00000
      8     -64.0983      1.00000
      9     -64.0750      1.00000
     10     -64.0750      1.00000
     11     -64.0750      1.00000
     12     -64.0750      1.00000
     13     -64.0750      1.00000
     14     -64.0750      1.00000
     15     -64.0750      1.00000
     16     -64.0750      1.00000
     17     -64.0660      1.00000
     18     -64.0660      1.00000
     19     -64.0660      1.00000
     20     -64.0660      1.00000
     21     -64.0660      1.00000
     22     -64.0660      1.00000
     23     -64.0660      1.00000
     24     -64.0660      1.00000
     25     -51.5597      1.00000
     26     -51.5597      1.00000
     27     -51.5597      1.00000
     28     -51.5597      1.00000
     29     -51.5596      1.00000
     30     -51.5596      1.00000
     31     -51.5596      1.00000
     32     -51.5596      1.00000
     33     -51.3650      1.00000
     34     -51.3650      1.00000
     35     -51.3650      1.00000
     36     -51.3650      1.00000
     37     -47.4174      1.00000
     38     -47.4174      1.00000
     39     -47.4174      1.00000
     40     -47.4174      1.00000
     41     -47.4174      1.00000
     42     -47.4174      1.00000
     43     -47.4174      1.00000
     44     -47.4174      1.00000
     45     -47.3205      1.00000
     46     -47.3205      1.00000
     47     -47.3205      1.00000
     48     -47.3205      1.00000
     49      -8.9562      1.00000
     50      -8.9562      1.00000
     51      -8.3974      1.00000
     52      -8.3974      1.00000
     53      -8.3786      1.00000
     54      -8.3786      1.00000
     55      -7.6886      1.00000
     56      -7.6886      1.00000
     57      -7.4257      1.00000
     58      -7.4257      1.00000
     59      -7.4257      1.00000
     60      -7.4257      1.00000
[...]
    194       8.1482      0.00000
    195       8.8794      0.00000
    196       8.8794      0.00000
    197       8.8794      0.00000
    198       8.8794      0.00000
    199       9.7141      0.00000
    200       9.7141      0.00000
    201       9.7410      0.00000
    202       9.7410      0.00000
    203      10.0100      0.00000
    204      10.0100      0.00000
    205      10.0770      0.00000
    206      10.0770      0.00000
    207      10.3551      0.00000
    208      10.3551      0.00000

[...]

 k-point    23 :       0.5000    0.5000    0.3333
  band No.  band energies     occupation
      1     -64.1612      1.00000
      2     -64.1612      1.00000
      3     -64.1612      1.00000
      4     -64.1612      1.00000
      5     -64.0983      1.00000
      6     -64.0983      1.00000
      7     -64.0983      1.00000
      8     -64.0983      1.00000
      9     -64.0750      1.00000
     10     -64.0750      1.00000
     11     -64.0750      1.00000
     12     -64.0750      1.00000
     13     -64.0750      1.00000
     14     -64.0750      1.00000
     15     -64.0750      1.00000
     16     -64.0750      1.00000
     17     -64.0660      1.00000
     18     -64.0660      1.00000
     19     -64.0660      1.00000
     20     -64.0660      1.00000
     21     -64.0660      1.00000
     22     -64.0660      1.00000
     23     -64.0660      1.00000
     24     -64.0660      1.00000
     25     -51.5597      1.00000
     26     -51.5597      1.00000
     27     -51.5597      1.00000
     28     -51.5597      1.00000
     29     -51.5597      1.00000
     30     -51.5597      1.00000
     31     -51.5597      1.00000
     32     -51.5597      1.00000
     33     -51.3650      1.00000
     34     -51.3650      1.00000
     35     -51.3650      1.00000
     36     -51.3650      1.00000
     37     -47.4174      1.00000
     38     -47.4174      1.00000
     39     -47.4174      1.00000
     40     -47.4174      1.00000
     41     -47.4174      1.00000
     42     -47.4174      1.00000
     43     -47.4174      1.00000
     44     -47.4174      1.00000
     45     -47.3205      1.00000
     46     -47.3205      1.00000
     47     -47.3205      1.00000
     48     -47.3205      1.00000
     49      -7.8930      1.00000
     50      -7.8930      1.00000
     51      -7.8930      1.00000
     52      -7.8930      1.00000
     53      -7.8910      1.00000
     54      -7.8910      1.00000
     55      -7.8910      1.00000
     56      -7.8910      1.00000
     57      -7.8762      1.00000
     58      -7.8762      1.00000
     59      -7.8762      1.00000
     60      -7.8762      1.00000
[...]
    194       9.7358      0.00000
    195       9.7358      0.00000
    196       9.7359      0.00000
    197       9.8137      0.00000
    198       9.8137      0.00000
    199       9.8137      0.00000
    200       9.8137      0.00000
    201      10.6969      0.00000
    202      10.6969      0.00000
    203      10.6969      0.00000
    204      10.6969      0.00000
    205      10.8985      0.00000
    206      10.8985      0.00000
    207      10.8985      0.00000
    208      10.8985      0.00000

 soft charge-density along one line, spin component           1
         0         1         2         3         4         5         6         7         8         9
 total charge-density along one line

[...]

 soft charge-density along one line, spin component           4
         0         1         2         3         4         5         6         7         8         9
 total charge-density along one line

------------------------ aborting loop because EDIFF is reached ----------------------------------------

 total charge

# of ion       s       p       d       tot
    1        1.314   2.421   0.000   3.735
    2        1.314   2.421   0.000   3.735
    3        1.314   2.420   0.000   3.734
    4        1.314   2.419   0.000   3.733
    5        1.314   2.421   0.000   3.735
    6        1.314   2.421   0.000   3.735
    7        1.314   2.420   0.000   3.734
    8        1.314   2.419   0.000   3.733
    9        0.267   6.215   8.911  15.393
   10        0.267   6.215   8.911  15.393
   11        0.267   6.215   8.911  15.393
   12        0.267   6.215   8.911  15.393
   13        0.353   6.359   5.836  12.548
   14        0.353   6.359   5.835  12.548
   15        0.353   6.359   5.836  12.548
   16        0.353   6.359   5.835  12.548
tot         12.989  69.662  58.986 141.636

 magnetization (x)

[...]

 magnetization (y)

[...]

 magnetization (z)

[...]

  FORCE on cell =-STRESS in cart. coord.  units (eV):
  Direction    XX          YY          ZZ          XY          YZ          ZX
  Alpha Z   606.58318   606.58318   606.58318
  Ewald   -5445.64490 -5445.64490 -4899.40958     0.00000     0.00000     0.00000
  Hartree  3450.35470  3450.35470  3724.26353    -0.00000     0.00000     0.00000
  E(xc)   -1051.54492 -1051.54492 -1051.25262    -0.00000    -0.00000    -0.00000
  Local    -907.17161  -907.17161 -1724.62920    -0.00000    -0.00000    -0.00000
  n-local   121.53315   123.11737   129.99732    -0.30267     0.04402    -0.01285
  augment  1179.74494  1179.74494  1183.59566    -0.00000    -0.00000    -0.00000
  Kinetic  2043.13557  2059.70778  2030.85139    -0.87292     0.12094     0.02808
  Fock        0.00000     0.00000     0.00000     0.00000     0.00000     0.00000
  Total       6.06831     6.06831    -0.00032     0.00000     0.00000     0.00000
  in kB      34.80448    34.80448    -0.00181     0.00000     0.00000     0.00000

 VOLUME and BASIS-vectors are now :
  energy-cutoff  :      700.00
  volume of cell :      279.35
      direct lattice vectors                 reciprocal lattice vectors
     4.995846373  0.000000000  0.000000000     0.200166283  0.000000000  0.000000000
     0.000000000  4.995846373  0.000000000     0.000000000  0.200166283  0.000000000
     0.000000000  0.000000000 11.192449375     0.000000000  0.000000000  0.089345948

  length of vectors
     4.995846373  4.995846373 11.192449375     0.200166283  0.200166283  0.089345948

 FORCES acting on ions:
    Electron-Ion                     Ewald-Force                    Non-Local-Force
   0.413E+02 -.400E-12 -.163E-12   -.421E+02 0.469E-12 -.142E-12   0.846E+00 -.354E-18 -.251E-18
   -.413E+02 -.383E-13 0.803E-12   0.421E+02 -.824E-12 -.568E-13   -.846E+00 0.244E-18 -.216E-17
   0.365E-12 -.413E+02 -.229E-13   0.500E-12 0.421E+02 0.000E+00   -.769E-19 -.846E+00 0.458E-18
   0.961E-12 0.413E+02 -.533E-13   -.880E-12 -.421E+02 0.142E-13   -.164E-18 0.846E+00 0.168E-17
   -.413E+02 -.312E-13 -.275E-12   0.421E+02 0.531E-12 -.426E-13   -.846E+00 -.501E-19 0.129E-17
   0.413E+02 0.279E-12 -.787E-14   -.421E+02 -.831E-12 -.568E-13   0.846E+00 0.616E-19 0.160E-17
   0.649E-12 -.413E+02 -.523E-12   -.753E-12 0.421E+02 -.568E-13   -.815E-19 -.846E+00 -.448E-18
   0.110E-12 0.413E+02 0.556E-12   0.469E-12 -.421E+02 -.284E-13   -.209E-18 0.846E+00 -.317E-18
   0.202E-12 0.165E-12 0.404E-11   0.970E-05 -.198E-04 0.000E+00   -.267E-18 0.108E-18 0.174E-17
   0.169E-11 -.239E-12 -.742E-11   -.970E-05 -.198E-04 -.824E-11   -.299E-18 -.553E-18 0.168E-17
   0.170E-11 -.498E-11 0.730E-12   -.970E-05 0.198E-04 0.171E-12   0.317E-18 -.540E-18 -.183E-17
   0.236E-12 0.129E-11 0.431E-11   0.970E-05 0.198E-04 0.826E-11   0.256E-18 0.958E-19 -.113E-17
   0.161E-12 -.512E-13 0.687E-12   -.701E-05 0.167E-04 0.114E-12   -.127E-18 0.231E-18 0.138E-17
   0.767E-12 0.131E-12 -.299E-10   0.701E-05 0.167E-04 -.652E-11   0.180E-18 -.399E-19 -.144E-17
   0.799E-12 -.467E-11 -.859E-11   0.701E-05 -.167E-04 0.000E+00   -.279E-18 0.862E-19 0.128E-17
   0.138E-12 0.745E-12 0.762E-14   -.701E-05 -.167E-04 0.659E-11   0.262E-18 0.897E-19 -.121E-17
   0.168E-10 -.158E-11 -.360E-10   0.364E-13 -.732E-13 0.104E-13   -.111E-15 -.445E-15 0.232E-17

 POSITION                                       TOTAL-FORCE (eV/Angst)
      1.26620      1.24896      1.39906         0.000002      0.000000     -0.000000
      3.72965      3.74688      1.39906        -0.000002      0.000000      0.000000
      1.24896      3.72965      9.79339        -0.000000     -0.000002     -0.000000
      3.74688      1.26620      9.79339        -0.000000      0.000002     -0.000000
      1.23173      1.24896      6.99528        -0.000002      0.000000      0.000000
      3.76412      3.74688      6.99528         0.000002      0.000000     -0.000000
      3.74688      1.23173      4.19717        -0.000000     -0.000002      0.000000
      1.24896      3.76412      4.19717        -0.000000      0.000002     -0.000000
      0.00000      0.00000      5.59622        -0.000000      0.000000      0.000000
      2.49792      0.00000      2.79811         0.000000     -0.000000     -0.000000
      2.49792      2.49792      0.00000        -0.000000      0.000000      0.000000
      0.00000      2.49792      8.39434         0.000000      0.000000     -0.000000
      0.00000      0.00000      0.00000         0.000000      0.000000     -0.000000
      2.49792      0.00000      8.39434        -0.000000     -0.000000      0.000000
      2.49792      2.49792      5.59622         0.000000      0.000000      0.000000
      0.00000      2.49792      2.79811        -0.000000      0.000000      0.000000
    total drift:                                0.000000     -0.000000     -0.000000

  FREE ENERGIE OF THE ION-ELECTRON SYSTEM (eV)
  free  energy   TOTEN  =       -81.73723337 eV

  energy  without entropy=      -81.73723337  energy(sigma->0) =      -81.73723337

 writing wavefunctions

 total charge

[...]

 magnetization (x)

[...]

 magnetization (y)

[...]

 magnetization (z)

# of ion       s       p       d       tot
    1        0.000  -0.003   0.000  -0.002
    2        0.000  -0.004   0.000  -0.003
    3       -0.000   0.004   0.000   0.003
    4       -0.000   0.003   0.000   0.003
    5        0.000  -0.004   0.000  -0.003
    6        0.000  -0.003   0.000  -0.002
    7       -0.000   0.004   0.000   0.003
    8       -0.000   0.003   0.000   0.003
    9        0.001  -0.002   0.019   0.018
   10       -0.001   0.003  -0.019  -0.017
   11        0.001  -0.002   0.019   0.018
   12       -0.001   0.003  -0.019  -0.017
   13        0.020   0.053   3.651   3.724
   14       -0.020  -0.053  -3.651  -3.724
   15        0.020   0.053   3.651   3.724
   16       -0.020  -0.053  -3.651  -3.724
tot         -0.000   0.001  -0.001  -0.000

 BZINTS: Fermi energy:  5.379847;172.000000 electrons
         Band energy:***********;  BLOECHL correction:  0.000000
 BZINTS: Fermi energy:  5.379847;172.000000 electrons
         Band energy:***********;  BLOECHL correction:  0.000000
 BZINTS: Fermi energy:  5.379847;172.000000 electrons
         Band energy:***********;  BLOECHL correction:  0.000000
 BZINTS: Fermi energy:  5.379847;172.000000 electrons
         Band energy:***********;  BLOECHL correction:  0.000000