 vasp.5.4.4.18Apr17-6-g9f103f2a35 (build Oct 30 2023 17:30:16) complex

 executed on             LinuxIFC date 2024.06.30  21:44:53

 INCAR:
 POTCAR:    PAW_PBE S 06Sep2000
 POTCAR:     PAW_PBE Cu_pv 06Sep2000
 POTCAR:     PAW_PBE Fe_pv 02Aug2007

   TITEL  = PAW_PBE S 06Sep2000
   POMASS =   32.066; ZVAL   =    6.000    mass and valenz
   ENMAX  =  258.689; ENMIN  =  194.016 eV

   TITEL  = PAW_PBE Cu_pv 06Sep2000
   POMASS =   63.546; ZVAL   =   17.000    mass and valenz
   ENMAX  =  368.648; ENMIN  =  276.486 eV

   TITEL  = PAW_PBE Fe_pv 02Aug2007
   POMASS =   55.847; ZVAL   =   14.000    mass and valenz
   ENMAX  =  293.238; ENMIN  =  219.928 eV

  PAW_PBE S 06Sep2000                   :
   PAW_PBE Cu_pv 06Sep2000              :
   PAW_PBE Fe_pv 02Aug2007              :

 POSCAR: Fe16 Cu16 S32
  positions in direct lattice
 exchange correlation table for  LEXCH =       14
   RHO(1)=    0.500       N(1)  =     2000
   RHO(2)=  100.500       N(2)  =     4000

 ion  position               nearest neighbor table
   1  0.126  0.122  0.126-  41 2.26  61 2.27  37 2.27  49 2.29
   2  0.626  0.122  0.126-  42 2.26  62 2.27  38 2.27  50 2.29
   3  0.126  0.622  0.126-  43 2.26  63 2.27  39 2.27  51 2.29
   4  0.626  0.622  0.126-  44 2.26  64 2.27  40 2.27  52 2.29
   5  0.374  0.372  0.124-  39 2.26  52 2.27  41 2.27  62 2.29
   6  0.874  0.372  0.124-  40 2.26  51 2.27  42 2.27  61 2.29
   7  0.374  0.872  0.124-  37 2.26  50 2.27  43 2.27  64 2.29
   8  0.874  0.872  0.124-  38 2.26  49 2.27  44 2.27  63 2.29
   9  0.125  0.371  0.875-  41 2.27  45 2.27  51 2.27  55 2.27
  10  0.625  0.371  0.875-  42 2.27  46 2.27  52 2.27  56 2.27
  11  0.125  0.871  0.875-  43 2.27  47 2.27  49 2.27  53 2.27
  12  0.625  0.871  0.875-  44 2.27  48 2.27  50 2.27  54 2.27
  13  0.375  0.124  0.875-  41 2.26  46 2.26  50 2.28  53 2.28
  14  0.875  0.124  0.875-  42 2.26  45 2.26  49 2.28  54 2.28
  15  0.375  0.624  0.875-  43 2.26  48 2.26  52 2.28  55 2.28
  16  0.875  0.624  0.875-  44 2.26  47 2.26  51 2.28  56 2.28
  17  0.124  0.122  0.624-  45 2.26  57 2.27  33 2.27  53 2.29
  18  0.624  0.122  0.624-  46 2.26  58 2.27  34 2.27  54 2.29
  19  0.124  0.622  0.624-  47 2.26  59 2.27  35 2.27  55 2.29
  20  0.624  0.622  0.624-  48 2.26  60 2.27  36 2.27  56 2.29
  21  0.376  0.372  0.626-  36 2.26  55 2.27  46 2.27  57 2.29
  22  0.876  0.372  0.626-  35 2.26  56 2.27  45 2.27  58 2.29
  23  0.376  0.872  0.626-  34 2.26  53 2.27  48 2.27  59 2.29
  24  0.876  0.872  0.626-  33 2.26  54 2.27  47 2.27  60 2.29
  25  0.375  0.121  0.375-  34 2.27  37 2.27  57 2.27  62 2.27
  26  0.875  0.121  0.375-  33 2.27  38 2.27  58 2.27  61 2.27
  27  0.375  0.621  0.375-  36 2.27  39 2.27  59 2.27  64 2.27
  28  0.875  0.621  0.375-  35 2.27  40 2.27  60 2.27  63 2.27
  29  0.125  0.374  0.375-  35 2.26  39 2.26  57 2.28  61 2.28
  30  0.625  0.374  0.375-  36 2.26  40 2.26  58 2.28  62 2.28
  31  0.125  0.874  0.375-  33 2.26  37 2.26  59 2.28  63 2.28
  32  0.625  0.874  0.375-  34 2.26  38 2.26  60 2.28  64 2.28
  33  0.999  0.003  0.500-  24 2.26  31 2.26  26 2.27  17 2.27
  34  0.499  0.003  0.500-  23 2.26  32 2.26  25 2.27  18 2.27
  35  0.999  0.503  0.500-  22 2.26  29 2.26  28 2.27  19 2.27
  36  0.499  0.503  0.500-  21 2.26  30 2.26  27 2.27  20 2.27
  37  0.251  0.003  0.250-   7 2.26  31 2.26  25 2.27   1 2.27
  38  0.751  0.003  0.250-   8 2.26  32 2.26  26 2.27   2 2.27
  39  0.251  0.503  0.250-   5 2.26  29 2.26  27 2.27   3 2.27
  40  0.751  0.503  0.250-   6 2.26  30 2.26  28 2.27   4 2.27
  41  0.249  0.253  0.000-   1 2.26  13 2.26   9 2.27   5 2.27
  42  0.749  0.253  0.000-   2 2.26  14 2.26  10 2.27   6 2.27
  43  0.249  0.753  0.000-   3 2.26  15 2.26  11 2.27   7 2.27
  44  0.749  0.753  0.000-   4 2.26  16 2.26  12 2.27   8 2.27
  45  0.001  0.253  0.750-  17 2.26  14 2.26   9 2.27  22 2.27
  46  0.501  0.253  0.750-  18 2.26  13 2.26  10 2.27  21 2.27
  47  0.001  0.753  0.750-  19 2.26  16 2.26  11 2.27  24 2.27
  48  0.501  0.753  0.750-  20 2.26  15 2.26  12 2.27  23 2.27
  49  0.999  0.003  0.000-   8 2.27  11 2.27  14 2.28   1 2.29
  50  0.499  0.003  0.000-   7 2.27  12 2.27  13 2.28   2 2.29
  51  0.999  0.503  0.000-   6 2.27   9 2.27  16 2.28   3 2.29
  52  0.499  0.503  0.000-   5 2.27  10 2.27  15 2.28   4 2.29
  53  0.251  0.003  0.750-  23 2.27  11 2.27  13 2.28  17 2.29
  54  0.751  0.003  0.750-  24 2.27  12 2.27  14 2.28  18 2.29
  55  0.251  0.503  0.750-  21 2.27   9 2.27  15 2.28  19 2.29
  56  0.751  0.503  0.750-  22 2.27  10 2.27  16 2.28  20 2.29
  57  0.249  0.253  0.500-  17 2.27  25 2.27  29 2.28  21 2.29
  58  0.749  0.253  0.500-  18 2.27  26 2.27  30 2.28  22 2.29
  59  0.249  0.753  0.500-  19 2.27  27 2.27  31 2.28  23 2.29
  60  0.749  0.753  0.500-  20 2.27  28 2.27  32 2.28  24 2.29
  61  0.001  0.253  0.250-   1 2.27  26 2.27  29 2.28   6 2.29
  62  0.501  0.253  0.250-   2 2.27  25 2.27  30 2.28   5 2.29
  63  0.001  0.753  0.250-   3 2.27  28 2.27  31 2.28   8 2.29
  64  0.501  0.753  0.250-   4 2.27  27 2.27  32 2.28   7 2.29

  LATTYP: Found a simple monoclinic cell.
 ALAT       =    15.2035689414
 B/A-ratio  =     0.6919268127
 C/A-ratio  =     1.5682150088
 COS(beta)  =    -0.9534689164

  Lattice vectors:

 A1 = ( -10.8014730000,   0.0000000000, -10.6993780000)
 A2 = (   0.0000000000, -10.5197570000,   0.0000000000)
 A3 = (  11.0921400000,   0.0000000000,  21.1051550000)

Analysis of symmetry for initial positions (statically):
 Subroutine PRICEL returns following result:

  LATTYP: Found a base centered monoclinic cell.
 ALAT       =    11.3971576447
 B/A-ratio  =     0.4615079184
 C/A-ratio  =     0.9133712253
 COS(beta)  =    -0.8059326212

[...]

   8 primitive cells build up your supercell.

 Routine SETGRP: Setting up the symmetry group for a
 simple monoclinic supercell.

 Subroutine GETGRP returns: Found  2 space group operations
 (whereof  1 operations were pure point group operations)
 out of a pool of  4 trial point group operations.

The static configuration has the point symmetry C_1 .
 The point group associated with its full space group is C_2 .

Analysis of symmetry for dynamics (positions and initial velocities):
 Subroutine PRICEL returns following result:

[...]

The dynamic configuration has the point symmetry C_1 .
 The point group associated with its full space group is C_2 .

Analysis of structural, dynamic, and magnetic symmetry:
 Subroutine PRICEL returns following result:

  LATTYP: Found a base centered monoclinic cell.
 ALAT       =    11.3971576447
 B/A-ratio  =     0.4615079184
 C/A-ratio  =     0.9133712253
 COS(beta)  =    -0.8059326212

  Lattice vectors:

 A1 = (  -2.4823680000,  -2.6299392500,   5.1294882500)
 A2 = (  -2.4823680000,   2.6299392500,   5.1294882500)
 A3 = (  -0.2906670000,   0.0000000000, -10.4057770000)

   8 primitive cells build up your supercell.

 Routine SETGRP: Setting up the symmetry group for a
 simple monoclinic supercell.

 Subroutine GETGRP returns: Found  2 space group operations
 (whereof  1 operations were pure point group operations)
 out of a pool of  4 trial point group operations.

The magnetic configuration has the point symmetry C_1 .
 The point group associated with its full space group is C_2 .

 Subroutine INISYM returns: Found  2 space group operations
 (whereof  1 operations are pure point group operations),
 and found     8 'primitive' translations

 KPOINTS: Automatic mesh

Automatic generation of k-mesh.
Space group operators:
 irot       det(A)        alpha          n_x          n_y          n_z        tau_x        tau_y        tau_z
    1     1.000000     0.000000     1.000000     0.000000     0.000000     0.000000     0.000000     0.000000
    2     1.000000   179.999999     0.000000     1.000000     0.000000    -0.250000     0.000000    -0.250000

 Subroutine IBZKPT returns following result:

 Found      8 irreducible k-points:

 Following reciprocal coordinates:
            Coordinates               Weight
  0.000000  0.000000  0.000000      1.000000
  0.500000  0.000000  0.000000      1.000000
  0.000000  0.500000  0.000000      1.000000
  0.500000  0.500000  0.000000      1.000000
  0.000000  0.000000  0.500000      1.000000
  0.500000  0.000000  0.500000      1.000000
  0.000000  0.500000  0.500000      1.000000
  0.500000  0.500000  0.500000      1.000000

 Following cartesian coordinates:
            Coordinates               Weight
  0.000000  0.000000  0.000000      1.000000
  0.047607  0.000000 -0.001330      1.000000
  0.000000  0.047530  0.000000      1.000000
  0.047607  0.047530 -0.001330      1.000000
 -0.001343  0.000000  0.048088      1.000000
  0.046264  0.000000  0.046758      1.000000
 -0.001343  0.047530  0.048088      1.000000
  0.046264  0.047530  0.046758      1.000000

 TETIRR: Found     24 inequivalent tetrahedra from       48

 Subroutine IBZKPT_HF returns following result:

 Found      8 k-points in 1st BZ
 the following      8 k-points will be used (e.g. in the exchange kernel)
 Following reciprocal coordinates:   # in IRBZ
  0.000000  0.000000  0.000000    0.12500000   1 t-inv F
  0.500000  0.000000  0.000000    0.12500000   2 t-inv F
  0.000000  0.500000  0.000000    0.12500000   3 t-inv F
  0.500000  0.500000  0.000000    0.12500000   4 t-inv F
  0.000000  0.000000  0.500000    0.12500000   5 t-inv F
  0.500000  0.000000  0.500000    0.12500000   6 t-inv F
  0.000000  0.500000  0.500000    0.12500000   7 t-inv F
  0.500000  0.500000  0.500000    0.12500000   8 t-inv F

 SYSTEM =  CuFeS2
 POSCAR =  Fe16 Cu16 S32

 Startparameter for this run:
   NWRITE =      2    write-flag & timer
   PREC   = accura    normal or accurate (medium, high low for compatibility)
   ISTART =      0    job   : 0-new  1-cont  2-samecut
   ICHARG =      1    charge: 1-file 2-atom 10-const
   ISPIN  =      2    spin polarized calculation?
   LNONCOLLINEAR =      F non collinear calculations
   LSORBIT =      F    spin-orbit coupling
   INIWAV =      1    electr: 0-lowe 1-rand  2-diag
   LASPH  =      F    aspherical Exc in radial PAW
   METAGGA=      F    non-selfconsistent MetaGGA calc.

 Electronic Relaxation 1
   ENCUT  =  700.0 eV  51.45 Ry    7.17 a.u.  22.68 22.69 22.46*2*pi/ulx,y,z
   ENINI  =  700.0     initial cutoff
   ENAUG  =  758.2 eV  augmentation charge cutoff
   NELM   =    500;   NELMIN=  2; NELMDL= -5     # of ELM steps
   EDIFF  = 0.1E-07   stopping-criterion for ELM
   LREAL  =      F    real-space projection
   NLSPLINE    = F    spline interpolate recip. space projectors
   LCOMPAT=      F    compatible to vasp.4.4
   GGA_COMPAT  = T    GGA compatible to vasp.4.4-vasp.4.6
   LMAXPAW     = -100 max onsite density
   LMAXMIX     =    4 max onsite mixed and CHGCAR
   VOSKOWN=      0    Vosko Wilk Nusair interpolation
   ROPT   =    0.00000   0.00000   0.00000
 Ionic relaxation
   EDIFFG = -.1E-04   stopping-criterion for IOM
   NSW    =      0    number of steps for IOM
   NBLOCK =      1;   KBLOCK =      1    inner block; outer block
   IBRION =     -1    ionic relax: 0-MD 1-quasi-New 2-CG
   NFREE  =      0    steps in history (QN), initial steepest desc. (CG)
   ISIF   =      2    stress and relaxation
[...]
   0.418E+02 0.194E+02 0.191E+01   -.426E+02 -.196E+02 -.194E+01   0.845E+00 0.126E+00 0.240E-01   -.428E-05 -.111E-04 0.156E-05
   -.418E+02 0.194E+02 -.191E+01   0.426E+02 -.196E+02 0.194E+01   -.845E+00 0.126E+00 -.240E-01   0.429E-05 -.111E-04 -.156E-05
   -.418E+02 0.194E+02 -.191E+01   0.426E+02 -.196E+02 0.194E+01   -.845E+00 0.126E+00 -.240E-01   0.429E-05 -.111E-04 -.156E-05
   -.418E+02 0.194E+02 -.191E+01   0.426E+02 -.196E+02 0.194E+01   -.845E+00 0.126E+00 -.240E-01   0.429E-05 -.111E-04 -.157E-05
   -.418E+02 0.194E+02 -.191E+01   0.426E+02 -.196E+02 0.194E+01   -.845E+00 0.126E+00 -.240E-01   0.429E-05 -.111E-04 -.157E-05
   -.155E-07 -.273E+02 -.212E-06   -.622E-13 0.280E+02 -.551E-13   0.148E-23 -.737E+00 0.827E-24   -.123E-07 -.229E-05 0.347E-09
   -.155E-07 -.273E+02 -.212E-06   -.515E-13 0.280E+02 -.112E-12   -.840E-24 -.737E+00 0.827E-24   0.124E-07 -.229E-05 -.355E-09
   -.155E-07 -.273E+02 -.212E-06   -.409E-13 0.280E+02 -.586E-13   -.417E-24 -.737E+00 -.310E-24   -.123E-07 -.229E-05 0.347E-09
   -.155E-07 -.273E+02 -.212E-06   -.711E-13 0.280E+02 -.213E-13   0.112E-23 -.737E+00 0.207E-24   0.124E-07 -.229E-05 -.355E-09
   0.871E-08 0.572E+02 0.229E-06   -.639E-13 -.581E+02 0.711E-14   0.549E-25 0.980E+00 0.646E-25   -.148E-08 -.176E-04 -.366E-08
   0.871E-08 0.572E+02 0.229E-06   -.613E-13 -.581E+02 -.222E-13   0.267E-24 0.980E+00 0.000E+00   0.139E-08 -.176E-04 0.368E-08
   0.871E-08 0.572E+02 0.229E-06   -.533E-13 -.581E+02 -.213E-13   0.105E-23 0.980E+00 0.258E-25   -.148E-08 -.176E-04 -.366E-08
   0.871E-08 0.572E+02 0.229E-06   -.355E-13 -.581E+02 0.533E-14   -.383E-24 0.980E+00 0.517E-25   0.139E-08 -.176E-04 0.368E-08
   -.418E+02 0.194E+02 -.191E+01   0.426E+02 -.196E+02 0.194E+01   -.845E+00 0.126E+00 -.240E-01   0.428E-05 -.111E-04 -.156E-05
   -.418E+02 0.194E+02 -.191E+01   0.426E+02 -.196E+02 0.194E+01   -.845E+00 0.126E+00 -.240E-01   0.430E-05 -.111E-04 -.156E-05
   -.418E+02 0.194E+02 -.191E+01   0.426E+02 -.196E+02 0.194E+01   -.845E+00 0.126E+00 -.240E-01   0.428E-05 -.111E-04 -.156E-05
   -.418E+02 0.194E+02 -.191E+01   0.426E+02 -.196E+02 0.194E+01   -.845E+00 0.126E+00 -.240E-01   0.430E-05 -.111E-04 -.156E-05
   0.418E+02 0.194E+02 0.191E+01   -.426E+02 -.196E+02 -.194E+01   0.845E+00 0.126E+00 0.240E-01   -.429E-05 -.111E-04 0.156E-05
   0.418E+02 0.194E+02 0.191E+01   -.426E+02 -.196E+02 -.194E+01   0.845E+00 0.126E+00 0.240E-01   -.429E-05 -.111E-04 0.156E-05
   0.418E+02 0.194E+02 0.191E+01   -.426E+02 -.196E+02 -.194E+01   0.845E+00 0.126E+00 0.240E-01   -.429E-05 -.111E-04 0.157E-05
   0.418E+02 0.194E+02 0.191E+01   -.426E+02 -.196E+02 -.194E+01   0.845E+00 0.126E+00 0.240E-01   -.429E-05 -.111E-04 0.157E-05
   -.155E-07 -.273E+02 -.212E-06   -.426E-13 0.280E+02 -.131E-12   -.507E-24 -.737E+00 0.595E-24   0.626E-09 -.230E-05 0.369E-08
   -.155E-07 -.273E+02 -.212E-06   -.817E-13 0.280E+02 -.117E-12   -.669E-24 -.737E+00 0.310E-24   -.721E-09 -.230E-05 -.368E-08
   -.155E-07 -.273E+02 -.212E-06   -.568E-13 0.280E+02 -.568E-13   0.890E-24 -.737E+00 0.953E-24   0.626E-09 -.228E-05 0.369E-08
   -.155E-07 -.273E+02 -.212E-06   -.639E-13 0.280E+02 -.853E-13   -.176E-23 -.737E+00 -.517E-24   -.721E-09 -.228E-05 -.368E-08
   0.871E-08 0.572E+02 0.229E-06   -.835E-13 -.581E+02 -.249E-13   0.593E-24 0.980E+00 -.129E-24   -.123E-07 -.176E-04 0.327E-09
   0.871E-08 0.572E+02 0.229E-06   -.533E-13 -.581E+02 -.355E-14   -.119E-23 0.980E+00 0.233E-24   0.124E-07 -.176E-04 -.333E-09
   0.871E-08 0.572E+02 0.229E-06   -.711E-13 -.581E+02 -.213E-13   -.311E-24 0.980E+00 0.517E-25   -.123E-07 -.176E-04 0.327E-09
   0.871E-08 0.572E+02 0.229E-06   -.284E-13 -.581E+02 -.568E-13   0.590E-24 0.980E+00 -.129E-24   0.124E-07 -.176E-04 -.333E-09
   0.405E+01 -.182E+02 0.912E+00   -.400E+01 0.175E+02 -.928E+00   -.499E-01 0.739E+00 0.139E-01   0.700E-05 -.128E-04 0.208E-05
   0.405E+01 -.182E+02 0.912E+00   -.400E+01 0.175E+02 -.928E+00   -.499E-01 0.739E+00 0.139E-01   0.704E-05 -.128E-04 0.209E-05
   0.405E+01 -.182E+02 0.912E+00   -.400E+01 0.175E+02 -.928E+00   -.499E-01 0.739E+00 0.139E-01   0.700E-05 -.128E-04 0.207E-05
   0.405E+01 -.182E+02 0.912E+00   -.400E+01 0.175E+02 -.928E+00   -.499E-01 0.739E+00 0.139E-01   0.705E-05 -.128E-04 0.208E-05
   -.405E+01 -.182E+02 -.912E+00   0.400E+01 0.175E+02 0.928E+00   0.499E-01 0.739E+00 -.139E-01   -.705E-05 -.128E-04 -.208E-05
   -.405E+01 -.182E+02 -.912E+00   0.400E+01 0.175E+02 0.928E+00   0.499E-01 0.739E+00 -.139E-01   -.699E-05 -.128E-04 -.209E-05
   -.405E+01 -.182E+02 -.912E+00   0.400E+01 0.175E+02 0.928E+00   0.499E-01 0.739E+00 -.139E-01   -.706E-05 -.128E-04 -.207E-05
   -.405E+01 -.182E+02 -.912E+00   0.400E+01 0.175E+02 0.928E+00   0.499E-01 0.739E+00 -.139E-01   -.699E-05 -.128E-04 -.208E-05
   0.405E+01 -.182E+02 0.912E+00   -.400E+01 0.175E+02 -.928E+00   -.499E-01 0.739E+00 0.139E-01   0.699E-05 -.128E-04 0.208E-05
   0.405E+01 -.182E+02 0.912E+00   -.400E+01 0.175E+02 -.928E+00   -.499E-01 0.739E+00 0.139E-01   0.706E-05 -.128E-04 0.209E-05
   0.405E+01 -.182E+02 0.912E+00   -.400E+01 0.175E+02 -.928E+00   -.499E-01 0.739E+00 0.139E-01   0.699E-05 -.128E-04 0.207E-05
   0.405E+01 -.182E+02 0.912E+00   -.400E+01 0.175E+02 -.928E+00   -.499E-01 0.739E+00 0.139E-01   0.706E-05 -.128E-04 0.208E-05
   -.405E+01 -.182E+02 -.912E+00   0.400E+01 0.175E+02 0.928E+00   0.499E-01 0.739E+00 -.139E-01   -.704E-05 -.128E-04 -.208E-05
   -.405E+01 -.182E+02 -.912E+00   0.400E+01 0.175E+02 0.928E+00   0.499E-01 0.739E+00 -.139E-01   -.701E-05 -.128E-04 -.209E-05
   -.405E+01 -.182E+02 -.912E+00   0.400E+01 0.175E+02 0.928E+00   0.499E-01 0.739E+00 -.139E-01   -.704E-05 -.128E-04 -.206E-05
   -.405E+01 -.182E+02 -.912E+00   0.400E+01 0.175E+02 0.928E+00   0.499E-01 0.739E+00 -.139E-01   -.701E-05 -.128E-04 -.208E-05
   -.491E+01 -.181E+02 0.116E+01   0.482E+01 0.172E+02 -.119E+01   0.977E-01 0.974E+00 0.274E-01   0.607E-05 -.116E-04 -.478E-05
   -.491E+01 -.181E+02 0.116E+01   0.482E+01 0.172E+02 -.119E+01   0.977E-01 0.974E+00 0.274E-01   0.612E-05 -.116E-04 -.479E-05
   -.491E+01 -.181E+02 0.116E+01   0.482E+01 0.172E+02 -.119E+01   0.977E-01 0.974E+00 0.274E-01   0.607E-05 -.115E-04 -.477E-05
   -.491E+01 -.181E+02 0.116E+01   0.482E+01 0.172E+02 -.119E+01   0.977E-01 0.974E+00 0.274E-01   0.611E-05 -.115E-04 -.478E-05
   0.491E+01 -.181E+02 -.116E+01   -.482E+01 0.172E+02 0.119E+01   -.977E-01 0.974E+00 -.274E-01   -.611E-05 -.116E-04 0.478E-05
   0.491E+01 -.181E+02 -.116E+01   -.482E+01 0.172E+02 0.119E+01   -.977E-01 0.974E+00 -.274E-01   -.607E-05 -.116E-04 0.479E-05
   0.491E+01 -.181E+02 -.116E+01   -.482E+01 0.172E+02 0.119E+01   -.977E-01 0.974E+00 -.274E-01   -.611E-05 -.115E-04 0.477E-05
   0.491E+01 -.181E+02 -.116E+01   -.482E+01 0.172E+02 0.119E+01   -.977E-01 0.974E+00 -.274E-01   -.607E-05 -.115E-04 0.478E-05
   -.491E+01 -.181E+02 0.116E+01   0.482E+01 0.172E+02 -.119E+01   0.977E-01 0.974E+00 0.274E-01   0.607E-05 -.116E-04 -.478E-05
   -.491E+01 -.181E+02 0.116E+01   0.482E+01 0.172E+02 -.119E+01   0.977E-01 0.974E+00 0.274E-01   0.611E-05 -.116E-04 -.479E-05
   -.491E+01 -.181E+02 0.116E+01   0.482E+01 0.172E+02 -.119E+01   0.977E-01 0.974E+00 0.274E-01   0.607E-05 -.115E-04 -.477E-05
   -.491E+01 -.181E+02 0.116E+01   0.482E+01 0.172E+02 -.119E+01   0.977E-01 0.974E+00 0.274E-01   0.611E-05 -.115E-04 -.478E-05
   0.491E+01 -.181E+02 -.116E+01   -.482E+01 0.172E+02 0.119E+01   -.977E-01 0.974E+00 -.274E-01   -.612E-05 -.116E-04 0.478E-05
   0.491E+01 -.181E+02 -.116E+01   -.482E+01 0.172E+02 0.119E+01   -.977E-01 0.974E+00 -.274E-01   -.606E-05 -.116E-04 0.479E-05
   0.491E+01 -.181E+02 -.116E+01   -.482E+01 0.172E+02 0.119E+01   -.977E-01 0.974E+00 -.274E-01   -.612E-05 -.115E-04 0.477E-05
   0.491E+01 -.181E+02 -.116E+01   -.482E+01 0.172E+02 0.119E+01   -.977E-01 0.974E+00 -.274E-01   -.606E-05 -.115E-04 0.478E-05
   -.191E-05 -.314E+02 -.164E-03   -.413E-12 -.632E-12 0.241E-12   -.694E-15 0.314E+02 0.867E-16   -.209E-10 -.727E-03 -.427E-10

 POSITION                                       TOTAL-FORCE (eV/Angst)
      1.36329      1.27836      1.34305        -0.000193     -0.001951      0.000493
      6.61869      1.27836      1.48985        -0.000193     -0.001951      0.000493
      1.36329      6.53824      1.34305        -0.000193     -0.001951      0.000493
      6.61869      6.53824      1.48985        -0.000193     -0.001951      0.000493
      3.96478      3.90830      1.40520         0.000193     -0.001951     -0.000493
      9.22018      3.90830      1.55200         0.000193     -0.001951     -0.000493
      3.96478      9.16818      1.40520         0.000193     -0.001951     -0.000493
      9.22018      9.16818      1.55200         0.000193     -0.001951     -0.000493
      1.56818      3.90800      9.14175         0.000000     -0.000762      0.000000
      6.82359      3.90800      9.28856         0.000000     -0.000762      0.000000
      1.56818      9.16787      9.14175         0.000000     -0.000762      0.000000
      6.82359      9.16787      9.28856         0.000000     -0.000762      0.000000
      4.19589      1.30006      9.21516         0.000000      0.000332      0.000000
      9.45129      1.30006      9.36196         0.000000      0.000332      0.000000
      4.19589      6.55994      9.21516         0.000000      0.000332      0.000000
      9.45129      6.55994      9.36196         0.000000      0.000332      0.000000
      1.48241      1.27836      6.53468         0.000193     -0.001951     -0.000493
      6.73781      1.27836      6.68148         0.000193     -0.001951     -0.000493
      1.48241      6.53824      6.53468         0.000193     -0.001951     -0.000493
      6.73781      6.53824      6.68148         0.000193     -0.001951     -0.000493
      4.13633      3.90830      6.61934        -0.000193     -0.001951      0.000493
      9.39173      3.90830      6.76614        -0.000193     -0.001951      0.000493
      4.13633      9.16818      6.61934        -0.000193     -0.001951      0.000493
      9.39173      9.16818      6.76614        -0.000193     -0.001951      0.000493
      4.05055      1.27806      4.01227         0.000000     -0.000762      0.000000
      9.30596      1.27806      4.15907         0.000000     -0.000762      0.000000
      4.05055      6.53793      4.01227         0.000000     -0.000762      0.000000
      9.30596      6.53793      4.15907         0.000000     -0.000762      0.000000
      1.42285      3.93000      3.93887         0.000000      0.000332      0.000000
      6.67825      3.93000      4.08567         0.000000      0.000332      0.000000
      1.42285      9.18988      3.93887         0.000000      0.000332      0.000000
      6.67825      9.18988      4.08567         0.000000      0.000332      0.000000
     10.64535      0.03227      5.49627        -0.001424      0.000402     -0.001936
      5.38994      0.03227      5.34947        -0.001424      0.000402     -0.001936
     10.64535      5.29215      5.49627        -0.001424      0.000402     -0.001936
      5.38994      5.29215      5.34947        -0.001424      0.000402     -0.001936
      2.71116      0.03227      2.67506         0.001424      0.000402      0.001936
      7.96656      0.03227      2.82186         0.001424      0.000402      0.001936
      2.71116      5.29215      2.67506         0.001424      0.000402      0.001936
      7.96656      5.29215      2.82186         0.001424      0.000402      0.001936
      2.61691      2.66221      0.07318        -0.001424      0.000402     -0.001936
      7.87231      2.66221      0.21998        -0.001424      0.000402     -0.001936
      2.61691      7.92209      0.07318        -0.001424      0.000402     -0.001936
      7.87231      7.92209      0.21998        -0.001424      0.000402     -0.001936
      0.22879      2.66221      7.80455         0.001424      0.000402      0.001936
      5.48420      2.66221      7.95135         0.001424      0.000402      0.001936
      0.22879      7.92209      7.80455         0.001424      0.000402      0.001936
      5.48420      7.92209      7.95135         0.001424      0.000402      0.001936
     10.50495      0.03023      0.29553        -0.000091      0.001764     -0.002420
      5.24954      0.03023      0.14873        -0.000091      0.001764     -0.002420
     10.50495      5.29011      0.29553        -0.000091      0.001764     -0.002420
      5.24954      5.29011      0.14873        -0.000091      0.001764     -0.002420
      2.85156      0.03023      7.87581         0.000091      0.001764      0.002420
      8.10696      0.03023      8.02261         0.000091      0.001764      0.002420
      2.85156      5.29011      7.87581         0.000091      0.001764      0.002420
      8.10696      5.29011      8.02261         0.000091      0.001764      0.002420
      2.76718      2.66017      5.27822        -0.000091      0.001764     -0.002420
      8.02258      2.66017      5.42502        -0.000091      0.001764     -0.002420
      2.76718      7.92005      5.27822        -0.000091      0.001764     -0.002420
      8.02258      7.92005      5.42502        -0.000091      0.001764     -0.002420
      0.07853      2.66017      2.59952         0.000091      0.001764      0.002420
      5.33393      2.66017      2.74632         0.000091      0.001764      0.002420
      0.07853      7.92005      2.59952         0.000091      0.001764      0.002420
      5.33393      7.92005      2.74632         0.000091      0.001764      0.002420
    total drift:                               -0.000002      0.010775     -0.000164

  FREE ENERGIE OF THE ION-ELECTRON SYSTEM (eV)
  free  energy   TOTEN  =      -327.79014162 eV

  energy  without entropy=     -327.79014162  energy(sigma->0) =     -327.79014162

 writing wavefunctions

 total charge

[...]

 magnetization (x)

# of ion       s       p       d       tot
    1       -0.000  -0.013   0.000  -0.013
    2       -0.000  -0.013   0.000  -0.013
    3       -0.000  -0.013   0.000  -0.013
    4       -0.000  -0.013   0.000  -0.013
    5        0.000   0.013   0.000   0.013
    6        0.000   0.013   0.000   0.013
    7        0.000   0.013   0.000   0.013
    8        0.000   0.013   0.000   0.013
    9        0.000  -0.000   0.000  -0.000
   10       -0.000   0.000   0.000   0.000
   11        0.000  -0.000   0.000  -0.000
   12       -0.000   0.000   0.000   0.000
   13       -0.000   0.000   0.000   0.000
   14       -0.000  -0.000   0.000  -0.000
   15       -0.000   0.000   0.000   0.000
   16       -0.000  -0.000   0.000  -0.000
   17        0.000   0.013   0.000   0.013
   18        0.000   0.013   0.000   0.013
   19        0.000   0.013   0.000   0.013
   20        0.000   0.013   0.000   0.013
   21       -0.000  -0.013   0.000  -0.013
   22       -0.000  -0.013   0.000  -0.013
   23       -0.000  -0.013   0.000  -0.013
   24       -0.000  -0.013   0.000  -0.013
   25        0.000  -0.000   0.000  -0.000
   26       -0.000   0.000   0.000   0.000
   27        0.000   0.000   0.000   0.000
   28        0.000   0.000   0.000   0.000
   29       -0.000   0.000   0.000   0.000
   30        0.000  -0.000   0.000  -0.000
   31       -0.000   0.000   0.000   0.000
   32       -0.000  -0.000   0.000  -0.000
   33        0.000   0.001  -0.002  -0.001
   34        0.000   0.001  -0.002  -0.001
   35        0.000   0.001  -0.002  -0.001
   36        0.000   0.001  -0.002  -0.001
   37       -0.000  -0.001   0.002   0.001
   38       -0.000  -0.001   0.002   0.001
   39       -0.000  -0.001   0.002   0.001
   40       -0.000  -0.001   0.002   0.001
   41        0.000   0.001  -0.002  -0.001
   42        0.000   0.001  -0.002  -0.001
   43        0.000   0.001  -0.002  -0.001
   44        0.000   0.001  -0.002  -0.001
   45       -0.000  -0.001   0.002   0.001
   46       -0.000  -0.001   0.002   0.001
   47       -0.000  -0.001   0.002   0.001
   48       -0.000  -0.001   0.002   0.001
   49        0.020   0.054   3.669   3.743
   50        0.020   0.054   3.669   3.743
   51        0.020   0.054   3.669   3.743
   52        0.020   0.054   3.669   3.743
   53       -0.020  -0.054  -3.669  -3.743
   54       -0.020  -0.054  -3.669  -3.743
   55       -0.020  -0.054  -3.669  -3.743
   56       -0.020  -0.054  -3.669  -3.743
   57        0.020   0.054   3.669   3.743
   58        0.020   0.054   3.669   3.743
   59        0.020   0.054   3.669   3.743
   60        0.020   0.054   3.669   3.743
   61       -0.020  -0.054  -3.669  -3.743
   62       -0.020  -0.054  -3.669  -3.743
   63       -0.020  -0.054  -3.669  -3.743
   64       -0.020  -0.054  -3.669  -3.743
tot          0.000  -0.000  -0.000  -0.000

 BZINTS: Fermi energy:  4.932619;688.000000 electrons
         Band energy:***********;  BLOECHL correction:  0.000000