 vasp.5.4.4.18Apr17-6-g9f103f2a35 (build Oct 04 2018 15:53:47) complex

 executed on             LinuxIFC date 2022.10.07  15:46:26

 INCAR:
 POTCAR:    PAW_PBE S 06Sep2000
 POTCAR:     PAW_PBE Cu_pv 06Sep2000
 POTCAR:     PAW_PBE Fe_pv 02Aug2007
 POTCAR:    PAW_PBE S 06Sep2000
   VRHFIN =S : s2p4

   TITEL  = PAW_PBE S 06Sep2000
   POMASS =   32.066; ZVAL   =    6.000    mass and valenz
   ENMAX  =  258.689; ENMIN  =  194.016 eV

   TITEL  = PAW_PBE Cu_pv 06Sep2000
   POMASS =   63.546; ZVAL   =   17.000    mass and valenz
   ENMAX  =  368.648; ENMIN  =  276.486 eV

   TITEL  = PAW_PBE Fe_pv 02Aug2007
   POMASS =   55.847; ZVAL   =   14.000    mass and valenz
   ENMAX  =  293.238; ENMIN  =  219.928 eV

  PAW_PBE S 06Sep2000                   :
   PAW_PBE Cu_pv 06Sep2000              :
   PAW_PBE Fe_pv 02Aug2007              :

 POSCAR: sm_isp_SD0310437-standardized_unitcell
  positions in direct lattice
  velocities in cartesian coordinates
 exchange correlation table for  LEXCH =       14
   RHO(1)=    0.500       N(1)  =     2000
   RHO(2)=  100.500       N(2)  =     4000

 ion  position               nearest neighbor table
   1  0.252  0.250  0.125-  10 2.27  11 2.27  13 2.28  16 2.28
   2  0.748  0.750  0.125-  10 2.27  11 2.27  13 2.28  16 2.28
   3  0.250  0.748  0.875-  11 2.27  12 2.27  13 2.28  14 2.28
   4  0.750  0.252  0.875-  11 2.27  12 2.27  13 2.28  14 2.28
   5  0.248  0.250  0.625-   9 2.27  12 2.27  14 2.28  15 2.28
   6  0.752  0.750  0.625-   9 2.27  12 2.27  14 2.28  15 2.28
   7  0.750  0.248  0.375-   9 2.27  10 2.27  15 2.28  16 2.28
   8  0.250  0.752  0.375-   9 2.27  10 2.27  15 2.28  16 2.28
   9  0.000  0.000  0.500-   7 2.27   5 2.27   6 2.27   8 2.27
  10  0.500  0.000  0.250-   7 2.27   1 2.27   2 2.27   8 2.27
  11  0.500  0.500  0.000-   1 2.27   4 2.27   3 2.27   2 2.27
  12  0.000  0.500  0.750-   5 2.27   4 2.27   3 2.27   6 2.27
  13  0.000  0.000  0.000-   2 2.28   3 2.28   1 2.28   4 2.28
  14  0.500  0.000  0.750-   3 2.28   6 2.28   4 2.28   5 2.28
  15  0.500  0.500  0.500-   6 2.28   8 2.28   7 2.28   5 2.28
  16  0.000  0.500  0.250-   2 2.28   8 2.28   1 2.28   7 2.28

  LATTYP: Found a simple tetragonal cell.
 ALAT       =     5.3113735121
 C/A-ratio  =     1.9312583647

  Lattice vectors:

 A1 = (   5.3113735121,   0.0000000000,   0.0000000000)
 A2 = (   0.0000000000,   5.3113735121,   0.0000000000)
 A3 = (   0.0000000000,   0.0000000000,  10.2576345232)

Analysis of symmetry for initial positions (statically):
 Subroutine PRICEL returns following result:

  LATTYP: Found a body centered tetragonal cell.
 ALAT       =     5.3113735121
 C/A-ratio  =     1.9312583647

[...]

   2 primitive cells build up your supercell.

 Routine SETGRP: Setting up the symmetry group for a
 simple tetragonal supercell.

 Subroutine GETGRP returns: Found  8 space group operations
 (whereof  4 operations were pure point group operations)
 out of a pool of 16 trial point group operations.

The static configuration has the point symmetry S_4 .
 The point group associated with its full space group is D_2d.

Analysis of symmetry for dynamics (positions and initial velocities):
 Subroutine PRICEL returns following result:

[...]

The dynamic configuration has the point symmetry S_4 .
 The point group associated with its full space group is D_2d.

Analysis of structural, dynamic, and magnetic symmetry:
 Subroutine PRICEL returns following result:

  LATTYP: Found a body centered tetragonal cell.
 ALAT       =     5.3113735121
 C/A-ratio  =     1.9312583647

  Lattice vectors:

 A1 = (   2.6556867560,  -2.6556867560,   5.1288172616)
 A2 = (  -2.6556867560,   2.6556867560,   5.1288172616)
 A3 = (  -2.6556867560,  -2.6556867560,  -5.1288172616)

   2 primitive cells build up your supercell.

 Routine SETGRP: Setting up the symmetry group for a
 simple tetragonal supercell.

 Subroutine GETGRP returns: Found  8 space group operations
 (whereof  4 operations were pure point group operations)
 out of a pool of 16 trial point group operations.

The (compounded) configuration has the point symmetry S_4 .
 The point group associated with its full space group is D_2d.

 Subroutine INISYM returns: Found  8 space group operations
 (whereof  4 operations are pure point group operations),
 and found     2 'primitive' translations

 KPOINTS: Automatic mesh

Automatic generation of k-mesh.
Space group operators:
 irot       det(A)        alpha          n_x          n_y          n_z        tau_x        tau_y        tau_z
    1     1.000000     0.000000     1.000000     0.000000     0.000000     0.000000     0.000000     0.000000
    2    -1.000000    90.000000     0.000000     0.000000    -1.000000     0.000000     0.000000     0.000000
    3     1.000000   180.000000     0.000000     0.000000     1.000000     0.000000     0.000000     0.000000
    4    -1.000000    90.000000     0.000000     0.000000     1.000000     0.000000     0.000000     0.000000
    5     1.000000   180.000000     0.000000     1.000000     0.000000     0.000000    -0.500000     0.250000
    6    -1.000000   180.000000     0.707107     0.707107     0.000000     0.000000    -0.500000     0.250000
    7     1.000000   180.000000     1.000000     0.000000     0.000000     0.000000    -0.500000     0.250000
    8    -1.000000   180.000000     0.707107    -0.707107     0.000000     0.000000    -0.500000     0.250000

 Subroutine IBZKPT returns following result:

 Found     23 irreducible k-points:

 Following reciprocal coordinates:
            Coordinates               Weight
  0.000000  0.000000  0.000000      1.000000
  0.166667  0.000000  0.000000      4.000000
  0.333333  0.000000  0.000000      4.000000
  0.500000  0.000000  0.000000      2.000000
  0.166667  0.166667  0.000000      4.000000
  0.333333  0.166667  0.000000      8.000000
  0.500000  0.166667  0.000000      4.000000
  0.333333  0.333333  0.000000      4.000000
  0.500000  0.333333  0.000000      4.000000
  0.500000  0.500000  0.000000      1.000000
  0.000000  0.000000  0.333333      2.000000
  0.166667  0.000000  0.333333      8.000000
  0.333333  0.000000  0.333333      8.000000
  0.500000  0.000000  0.333333      4.000000
  0.166667  0.166667  0.333333      4.000000
  0.333333  0.166667  0.333333      8.000000
  0.500000  0.166667  0.333333      8.000000
 -0.333333  0.166667  0.333333      8.000000
 -0.166667  0.166667  0.333333      4.000000
  0.333333  0.333333  0.333333      4.000000
  0.500000  0.333333  0.333333      8.000000
 -0.333333  0.333333  0.333333      4.000000
  0.500000  0.500000  0.333333      2.000000

 Following cartesian coordinates:
            Coordinates               Weight
  0.000000  0.000000  0.000000      1.000000
  0.031379  0.000000  0.000000      4.000000
  0.062758  0.000000  0.000000      4.000000
  0.094138  0.000000  0.000000      2.000000
  0.031379  0.031379  0.000000      4.000000
  0.062758  0.031379  0.000000      8.000000
  0.094138  0.031379  0.000000      4.000000
  0.062758  0.062758  0.000000      4.000000
  0.094138  0.062758  0.000000      4.000000
  0.094138  0.094138  0.000000      1.000000
  0.000000  0.000000  0.032496      2.000000
  0.031379  0.000000  0.032496      8.000000
  0.062758  0.000000  0.032496      8.000000
  0.094138  0.000000  0.032496      4.000000
  0.031379  0.031379  0.032496      4.000000
  0.062758  0.031379  0.032496      8.000000
  0.094138  0.031379  0.032496      8.000000
 -0.062758  0.031379  0.032496      8.000000
 -0.031379  0.031379  0.032496      4.000000
  0.062758  0.062758  0.032496      4.000000
  0.094138  0.062758  0.032496      8.000000
 -0.062758  0.062758  0.032496      4.000000
  0.094138  0.094138  0.032496      2.000000

 TETIRR: Found    274 inequivalent tetrahedra from      648

 SYSTEM =  CuFeS2
 POSCAR =  sm_isp_SD0310437-standardized_unitcell

 Startparameter for this run:
   NWRITE =      2    write-flag & timer
   PREC   = accura    normal or accurate (medium, high low for compatibility)
   ISTART =      1    job   : 0-new  1-cont  2-samecut
   ICHARG =      1    charge: 1-file 2-atom 10-const
   ISPIN  =      1    spin polarized calculation?
   LNONCOLLINEAR =      T non collinear calculations
   LSORBIT =      F    spin-orbit coupling
   INIWAV =      1    electr: 0-lowe 1-rand  2-diag
   LASPH  =      T    aspherical Exc in radial PAW
   METAGGA=      F    non-selfconsistent MetaGGA calc.

 Electronic Relaxation 1
   ENCUT  =  700.0 eV  51.45 Ry    7.17 a.u.  11.46 11.46 22.13*2*pi/ulx,y,z
   ENINI  =  700.0     initial cutoff
   ENAUG  =  758.2 eV  augmentation charge cutoff
   NELM   =    200;   NELMIN=  2; NELMDL=  0     # of ELM steps
   EDIFF  = 0.1E-07   stopping-criterion for ELM
   LREAL  =      F    real-space projection
   NLSPLINE    = F    spline interpolate recip. space projectors
   LCOMPAT=      F    compatible to vasp.4.4
   GGA_COMPAT  = T    GGA compatible to vasp.4.4-vasp.4.6
   LMAXPAW     = -100 max onsite density
   LMAXMIX     =    4 max onsite mixed and CHGCAR
   VOSKOWN=      0    Vosko Wilk Nusair interpolation
   ROPT   =    0.00000   0.00000   0.00000
 Ionic relaxation
   EDIFFG = -.1E-04   stopping-criterion for IOM
   NSW    =      0    number of steps for IOM
   NBLOCK =      1;   KBLOCK =      1    inner block; outer block
   IBRION =     -1    ionic relax: 0-MD 1-quasi-New 2-CG
   NFREE  =      0    steps in history (QN), initial steepest desc. (CG)
   ISIF   =      2    stress and relaxation
   IWAVPR =     10    prediction:  0-non 1-charg 2-wave 3-comb
   ISYM   =      1    0-nonsym 1-usesym 2-fastsym
   LCORR  =      T    Harris-Foulkes like correction to forces

   POTIM  = 0.1000    time-step for ionic-motion
   TEIN   =    0.0    initial temperature
   TEBEG  =    0.0;   TEEND  =   0.0 temperature during run
   SMASS  =  -3.00    Nose mass-parameter (am)
   estimated Nose-frequenzy (Omega)   =  0.10E-29 period in steps =****** mass=  -0.645E-27a.u.
   SCALEE = 1.0000    scale energy and forces
   NPACO  =    256;   APACO  = 16.0  distance and # of slots for P.C.
   PSTRESS=    0.0 pullay stress

  Mass of Ions in am
   POMASS =  32.07 63.55 55.85
  Ionic Valenz
   ZVAL   =   6.00 17.00 14.00
  Atomic Wigner-Seitz radii
  virtual crystal weights
   VCA    =   1.00  1.00  1.00
   NELECT =     172.0000    total number of electrons
   NUPDOWN=      -1.0000    fix difference up-down

 DOS related values:
   EMIN   =  10.00;   EMAX   =-10.00  energy-range for DOS
   EFERMI =   0.00
   ISMEAR =    -5;   SIGMA  =   0.03  broadening in eV -4-tet -1-fermi 0-gaus

 Electronic relaxation 2 (details)
   IALGO  =     58    algorithm
   LDIAG  =      T    sub-space diagonalisation (order eigenvalues)
   LSUBROT=      F    optimize rotation matrix (better conditioning)
   TURBO    =      0    0=normal 1=particle mesh
   IRESTART =      0    0=no restart 2=restart with 2 vectors
   NREBOOT  =      0    no. of reboots
   NMIN     =      0    reboot dimension
   EREF     =   0.00    reference energy to select bands
   IMIX   =      4    mixing-type and parameters
     AMIX     =   0.40;   BMIX     =  1.00
     AMIX_MAG =   1.60;   BMIX_MAG =  1.00
     AMIN     =   0.10
[...]

 BZINTS: Fermi energy:  4.744870;172.000000 electrons
         Band energy:***********;  BLOECHL correction:  0.000000
 Maximum index for augmentation-charges          899 (set IRDMAX)

 initial charge from wavefunction
 First call to EWALD:  gamma=   0.268
 Maximum number of real-space cells 3x 3x 2
 Maximum number of reciprocal cells 2x 2x 4

--------------------------------------- Iteration      1(   1)  ---------------------------------------

 BZINTS: Fermi energy:  4.744871;172.000000 electrons
         Band energy:***********;  BLOECHL correction:  0.000000
 BZINTS: Fermi energy:  4.744870;172.000000 electrons
         Band energy:***********;  BLOECHL correction:  0.000000

 eigenvalue-minimisations  :     0
 total energy-change (2. order) :-0.8205200E+02  (-0.4892615E-09)
 number of electron     171.9999981 magnetization       0.0000000      0.0000000      0.0000000
 augmentation part       70.5623780 magnetization       0.0000001      0.0000000     -0.0002689

 Free energy of the ion-electron system (eV)
  alpha Z        PSCENC =       585.56180804
  Ewald energy   TEWEN  =    -15587.73719658
  -Hartree energ DENC   =    -10757.05534333
  -exchange      EXHF   =         0.00000000
  -V(xc)+E(xc)   XCENC  =       821.43146619
  PAW double counting   =     28007.01705064   -28930.19323418
  entropy T*S    EENTRO =         0.00000000
  eigenvalues    EBANDS =     -2726.09282436
  atomic energy  EATOM  =     28505.01627691
  free energy    TOTEN  =       -82.05199667 eV

  energy without entropy =      -82.05199667  energy(sigma->0) =      -82.05199667

[...]

 eigenvalue-minimisations  :     0
 total energy-change (2. order) :-0.4883259E-07  ( 0.1721428E-10)
 number of electron     171.9999981 magnetization       0.0000000      0.0000000     -0.0000000
 augmentation part       70.5623780 magnetization       0.0000000      0.0000000     -0.0002689

[...]

--------------------------------------- Iteration      1(  31)  ---------------------------------------

 BZINTS: Fermi energy:  4.744870;172.000000 electrons
         Band energy:***********;  BLOECHL correction:  0.000000
 BZINTS: Fermi energy:  4.744870;172.000000 electrons
         Band energy:***********;  BLOECHL correction:  0.000000

 eigenvalue-minimisations  :     0
 total energy-change (2. order) :-0.3794412E-08  (-0.4328719E-11)
 number of electron     171.9999981 magnetization       0.0000000      0.0000000     -0.0000000
 augmentation part       70.5623780 magnetization       0.0000000      0.0000000     -0.0002689

 Free energy of the ion-electron system (eV)
  alpha Z        PSCENC =       585.56180804
  Ewald energy   TEWEN  =    -15587.73719658
  -Hartree energ DENC   =    -10757.05528673
  -exchange      EXHF   =         0.00000000
  -V(xc)+E(xc)   XCENC  =       821.43146313
  PAW double counting   =     28007.01682626   -28930.19300629
  entropy T*S    EENTRO =         0.00000000
  eigenvalues    EBANDS =     -2726.09288208
  atomic energy  EATOM  =     28505.01627691
  free energy    TOTEN  =       -82.05199735 eV

  energy without entropy =      -82.05199735  energy(sigma->0) =      -82.05199735

  average scaling for gradient   0.8416

 average (electrostatic) potential at core
  the test charge radii are     0.9698  0.8297  0.9500
  (the norm of the test charge is              1.0000)
       1 -86.6773       2 -86.6773       3 -86.6773       4 -86.6773       5 -86.6773
       6 -86.6773       7 -86.6773       8 -86.6773       9 -80.7344      10 -80.7344
      11 -80.7344      12 -80.7344      13 -80.2830      14 -80.2830      15 -80.2830
      16 -80.2830

 E-fermi :   4.7449     XC(G=0): -10.4378     alpha+bet :-10.4841

 k-point     1 :       0.0000    0.0000    0.0000
  band No.  band energies     occupation
      1     -64.3296      1.00000
      2     -64.3296      1.00000
      3     -64.3296      1.00000
      4     -64.3296      1.00000
      5     -64.3172      1.00000
      6     -64.3172      1.00000
      7     -64.3172      1.00000
      8     -64.3172      1.00000
      9     -64.3122      1.00000
     10     -64.3122      1.00000
     11     -64.3122      1.00000
     12     -64.3122      1.00000
     13     -64.3122      1.00000
     14     -64.3122      1.00000
     15     -64.3122      1.00000
     16     -64.3122      1.00000
     17     -64.2992      1.00000
     18     -64.2992      1.00000
     19     -64.2992      1.00000
     20     -64.2992      1.00000
     21     -64.2992      1.00000
     22     -64.2992      1.00000
     23     -64.2992      1.00000
     24     -64.2992      1.00000
     25     -51.9645      1.00000
     26     -51.9645      1.00000
     27     -51.9645      1.00000
     28     -51.9645      1.00000
     29     -51.8914      1.00000
     30     -51.8914      1.00000
     31     -51.8914      1.00000
     32     -51.8914      1.00000
     33     -51.8914      1.00000
     34     -51.8914      1.00000
     35     -51.8914      1.00000
     36     -51.8914      1.00000
     37     -47.7955      1.00000
     38     -47.7955      1.00000
     39     -47.7955      1.00000
     40     -47.7955      1.00000
     41     -47.7731      1.00000
     42     -47.7731      1.00000
     43     -47.7731      1.00000
     44     -47.7731      1.00000
     45     -47.7731      1.00000
     46     -47.7731      1.00000
     47     -47.7731      1.00000
     48     -47.7731      1.00000
     49      -9.1378      1.00000
     50      -9.1378      1.00000
     51      -8.5159      1.00000
     52      -8.5159      1.00000
     53      -8.4939      1.00000
     54      -8.4939      1.00000
     55      -7.8263      1.00000
     56      -7.8263      1.00000
     57      -7.8263      1.00000
     58      -7.8263      1.00000
     59      -7.8181      1.00000
     60      -7.8181      1.00000
[...]
    194       7.5975      0.00000
    195       8.6153      0.00000
    196       8.6153      0.00000
    197       8.7960      0.00000
    198       8.7960      0.00000
    199       8.7960      0.00000
    200       8.7960      0.00000
    201       9.2471      0.00000
    202       9.2471      0.00000
    203       9.5030      0.00000
    204       9.5030      0.00000
    205       9.8842      0.00000
    206       9.8842      0.00000
    207      10.1198      0.00000
    208      10.1198      0.00000

[...]

 k-point    23 :       0.5000    0.5000    0.3333
  band No.  band energies     occupation
      1     -64.3296      1.00000
      2     -64.3296      1.00000
      3     -64.3296      1.00000
      4     -64.3296      1.00000
      5     -64.3172      1.00000
      6     -64.3172      1.00000
      7     -64.3172      1.00000
      8     -64.3172      1.00000
      9     -64.3122      1.00000
     10     -64.3122      1.00000
     11     -64.3122      1.00000
     12     -64.3122      1.00000
     13     -64.3122      1.00000
     14     -64.3122      1.00000
     15     -64.3122      1.00000
     16     -64.3122      1.00000
     17     -64.2992      1.00000
     18     -64.2992      1.00000
     19     -64.2992      1.00000
     20     -64.2992      1.00000
     21     -64.2992      1.00000
     22     -64.2992      1.00000
     23     -64.2992      1.00000
     24     -64.2992      1.00000
     25     -51.9645      1.00000
     26     -51.9645      1.00000
     27     -51.9645      1.00000
     28     -51.9645      1.00000
     29     -51.8914      1.00000
     30     -51.8914      1.00000
     31     -51.8914      1.00000
     32     -51.8914      1.00000
     33     -51.8914      1.00000
     34     -51.8914      1.00000
     35     -51.8914      1.00000
     36     -51.8914      1.00000
     37     -47.7955      1.00000
     38     -47.7955      1.00000
     39     -47.7955      1.00000
     40     -47.7955      1.00000
     41     -47.7731      1.00000
     42     -47.7731      1.00000
     43     -47.7731      1.00000
     44     -47.7731      1.00000
     45     -47.7731      1.00000
     46     -47.7731      1.00000
     47     -47.7731      1.00000
     48     -47.7731      1.00000
     49      -8.1694      1.00000
     50      -8.1694      1.00000
     51      -8.1694      1.00000
     52      -8.1694      1.00000
     53      -8.1679      1.00000
     54      -8.1679      1.00000
     55      -8.1679      1.00000
     56      -8.1679      1.00000
     57      -8.1508      1.00000
     58      -8.1508      1.00000
     59      -8.1508      1.00000
     60      -8.1508      1.00000
[...]
    194       9.2826      0.00000
    195       9.2826      0.00000
    196       9.2826      0.00000
    197       9.5107      0.00000
    198       9.5107      0.00000
    199       9.5107      0.00000
    200       9.5107      0.00000
    201       9.9740      0.00000
    202       9.9740      0.00000
    203       9.9740      0.00000
    204       9.9740      0.00000
    205      10.3957      0.00000
    206      10.3957      0.00000
    207      10.3957      0.00000
    208      10.3957      0.00000

 soft charge-density along one line, spin component           1
         0         1         2         3         4         5         6         7         8         9
 total charge-density along one line

[...]

 soft charge-density along one line, spin component           4
         0         1         2         3         4         5         6         7         8         9
 total charge-density along one line

------------------------ aborting loop because EDIFF is reached ----------------------------------------

 total charge

# of ion       s       p       d       tot
    1        1.314   2.408   0.000   3.722
    2        1.314   2.407   0.000   3.721
    3        1.314   2.407   0.000   3.720
    4        1.314   2.406   0.000   3.720
    5        1.314   2.407   0.000   3.721
    6        1.314   2.408   0.000   3.722
    7        1.314   2.407   0.000   3.720
    8        1.314   2.406   0.000   3.720
    9        0.258   6.199   8.918  15.375
   10        0.258   6.199   8.918  15.375
   11        0.258   6.199   8.918  15.375
   12        0.258   6.199   8.918  15.375
   13        0.349   6.348   5.818  12.514
   14        0.349   6.348   5.817  12.514
   15        0.349   6.348   5.818  12.514
   16        0.349   6.348   5.817  12.514
tot         12.935  69.444  58.941 141.320

 magnetization (x)

[...]

 magnetization (y)

[...]

 magnetization (z)

[...]

  FORCE on cell =-STRESS in cart. coord.  units (eV):
  Direction    XX          YY          ZZ          XY          YZ          ZX
  Alpha Z   585.56181   585.56181   585.56181
  Ewald   -5146.91519 -5146.91519 -5293.94201    -0.00000     0.00000     0.00000
  Hartree  3606.65492  3606.65492  3543.74545    -0.00000    -0.00000    -0.00000
  E(xc)   -1050.47045 -1050.47045 -1050.53811    -0.00000     0.00000    -0.00000
  Local   -1337.63291 -1337.63291 -1125.02442    -0.00000    -0.00000    -0.00000
  n-local   120.35766   121.92711   119.82327    -0.22095    -0.02589    -0.02582
  augment  1181.56602  1181.56602  1178.46670    -0.00000     0.00000     0.00000
  Kinetic  2033.75785  2043.69779  2041.90715    -0.84590     0.12820    -0.04722
  Fock        0.00000     0.00000     0.00000     0.00000     0.00000     0.00000
  Total      -1.36560    -1.36560    -0.00016     0.00000     0.00000     0.00000
  in kB      -7.56088    -7.56088    -0.00086     0.00000     0.00000     0.00000

 VOLUME and BASIS-vectors are now :
  energy-cutoff  :      700.00
  volume of cell :      289.37
      direct lattice vectors                 reciprocal lattice vectors
     5.311373512  0.000000000  0.000000000     0.188275217  0.000000000  0.000000000
     0.000000000  5.311373512  0.000000000     0.000000000  0.188275217  0.000000000
     0.000000000  0.000000000 10.257634523     0.000000000  0.000000000  0.097488363

  length of vectors
     5.311373512  5.311373512 10.257634523     0.188275217  0.188275217  0.097488363

 FORCES acting on ions:
    Electron-Ion                     Ewald-Force                    Non-Local-Force
   0.423E+02 0.879E-13 0.192E-12   -.431E+02 0.654E-12 -.568E-13   0.808E+00 -.135E-18 -.687E-18
   -.423E+02 -.118E-11 -.115E-12   0.431E+02 -.122E-11 -.568E-13   -.808E+00 0.108E-17 0.740E-18
   0.626E-12 -.423E+02 0.374E-12   0.566E-12 0.431E+02 0.568E-13   0.964E-19 -.808E+00 0.445E-18
   0.317E-12 0.423E+02 -.723E-12   -.125E-11 -.431E+02 -.711E-13   -.343E-18 0.808E+00 -.159E-18
   -.423E+02 0.263E-13 0.293E-12   0.431E+02 0.665E-12 0.426E-13   -.808E+00 0.115E-17 0.213E-18
   0.423E+02 -.947E-12 0.963E-12   -.431E+02 -.123E-11 0.711E-13   0.808E+00 -.297E-18 -.186E-18
   0.413E-12 -.423E+02 0.859E-12   -.111E-11 0.431E+02 0.568E-13   -.329E-18 -.808E+00 -.326E-18
   0.591E-12 0.423E+02 0.665E-13   0.568E-12 -.431E+02 -.284E-13   -.327E-18 0.808E+00 0.142E-18
   -.207E-12 0.225E-12 0.340E-11   0.105E-04 -.241E-04 0.000E+00   -.187E-18 -.589E-19 0.309E-18
   0.133E-11 -.203E-12 -.706E-11   -.105E-04 -.241E-04 -.779E-11   -.182E-18 0.489E-18 0.798E-18
   0.138E-11 -.535E-11 0.352E-12   -.105E-04 0.241E-04 -.171E-12   0.154E-18 0.476E-18 -.207E-17
   -.199E-12 0.146E-11 0.435E-11   0.105E-04 0.241E-04 0.780E-11   0.140E-18 -.178E-18 -.279E-17
   -.106E-12 -.642E-13 -.707E-13   -.798E-05 0.200E-04 0.000E+00   -.101E-17 -.518E-19 -.499E-18
   0.567E-12 -.171E-12 -.318E-10   0.798E-05 0.200E-04 -.647E-11   -.929E-19 0.566E-19 -.129E-17
   0.595E-12 -.425E-11 -.104E-10   0.798E-05 -.200E-04 0.000E+00   0.507E-18 0.335E-19 0.138E-17
   -.871E-13 0.487E-12 0.651E-12   -.798E-05 -.200E-04 0.665E-11   0.947E-18 0.445E-19 0.819E-18
   0.115E-10 -.388E-11 -.389E-10   -.454E-13 0.789E-13 0.413E-13   -.111E-15 0.223E-15 -.316E-17

 POSITION                                       TOTAL-FORCE (eV/Angst)
      1.33920      1.32784      1.28220         0.000010     -0.000000     -0.000000
      3.97218      3.98353      1.28220        -0.000010     -0.000000      0.000000
      1.32784      3.97218      8.97543        -0.000000     -0.000010      0.000000
      3.98353      1.33920      8.97543        -0.000000      0.000010     -0.000000
      1.31649      1.32784      6.41102        -0.000010     -0.000000      0.000000
      3.99488      3.98353      6.41102         0.000010     -0.000000      0.000000
      3.98353      1.31649      3.84661        -0.000000     -0.000010     -0.000000
      1.32784      3.99488      3.84661        -0.000000      0.000010      0.000000
      0.00000      0.00000      5.12882        -0.000000     -0.000000     -0.000000
      2.65569      0.00000      2.56441        -0.000000      0.000000     -0.000000
      2.65569      2.65569      0.00000         0.000000     -0.000000      0.000000
      0.00000      2.65569      7.69323        -0.000000     -0.000000      0.000000
      0.00000      0.00000      0.00000        -0.000000     -0.000000      0.000000
      2.65569      0.00000      7.69323        -0.000000     -0.000000     -0.000000
      2.65569      2.65569      5.12882        -0.000000     -0.000000      0.000000
      0.00000      2.65569      2.56441        -0.000000     -0.000000     -0.000000
    total drift:                                0.000000     -0.000000     -0.000000

  FREE ENERGIE OF THE ION-ELECTRON SYSTEM (eV)
  free  energy   TOTEN  =       -82.05199735 eV

  energy  without entropy=      -82.05199735  energy(sigma->0) =      -82.05199735

 writing wavefunctions

 total charge

[...]

 magnetization (x)

[...]

 magnetization (y)

[...]

 magnetization (z)

# of ion       s       p       d       tot
    1        0.000  -0.002   0.000  -0.002
    2        0.000  -0.003   0.000  -0.003
    3       -0.000   0.003   0.000   0.002
    4       -0.000   0.003   0.000   0.003
    5        0.000  -0.003   0.000  -0.003
    6        0.000  -0.002   0.000  -0.002
    7       -0.000   0.003   0.000   0.002
    8       -0.000   0.003   0.000   0.003
    9        0.000   0.001  -0.003  -0.002
   10       -0.000  -0.001   0.003   0.002
   11        0.000   0.001  -0.003  -0.002
   12       -0.000  -0.001   0.003   0.002
   13        0.020   0.054   3.673   3.746
   14       -0.020  -0.054  -3.673  -3.747
   15        0.020   0.054   3.673   3.746
   16       -0.020  -0.054  -3.673  -3.747
tot         -0.000   0.000  -0.000  -0.000

 BZINTS: Fermi energy:  4.744870;172.000000 electrons
         Band energy:***********;  BLOECHL correction:  0.000000
 BZINTS: Fermi energy:  4.744870;172.000000 electrons
         Band energy:***********;  BLOECHL correction:  0.000000
 BZINTS: Fermi energy:  4.744870;172.000000 electrons
         Band energy:***********;  BLOECHL correction:  0.000000
 BZINTS: Fermi energy:  4.744870;172.000000 electrons
         Band energy:***********;  BLOECHL correction:  0.000000