 vasp.5.4.4.18Apr17-6-g9f103f2a35 (build Oct 30 2023 17:49:44) complex

 executed on             LinuxIFC date 2024.12.09  09:20:03

 INCAR:
 POTCAR:    PAW_PBE S 06Sep2000
 POTCAR:     PAW_PBE Cu_pv 06Sep2000
 POTCAR:     PAW_PBE Fe_pv 02Aug2007
 POTCAR:    PAW_PBE S 06Sep2000
   VRHFIN =S : s2p4

   TITEL  = PAW_PBE S 06Sep2000
   POMASS =   32.066; ZVAL   =    6.000    mass and valenz
   ENMAX  =  258.689; ENMIN  =  194.016 eV

   TITEL  = PAW_PBE Cu_pv 06Sep2000
   POMASS =   63.546; ZVAL   =   17.000    mass and valenz
   ENMAX  =  368.648; ENMIN  =  276.486 eV

   TITEL  = PAW_PBE Fe_pv 02Aug2007
   POMASS =   55.847; ZVAL   =   14.000    mass and valenz
   ENMAX  =  293.238; ENMIN  =  219.928 eV

  PAW_PBE S 06Sep2000                   :
   PAW_PBE Cu_pv 06Sep2000              :
   PAW_PBE Fe_pv 02Aug2007              :

 POSCAR: sm_isp_SD0310437-standardized_unitcell
  positions in direct lattice
  velocities in cartesian coordinates
 exchange correlation table for  LEXCH =       14
   RHO(1)=    0.500       N(1)  =     2000
   RHO(2)=  100.500       N(2)  =     4000

 ion  position               nearest neighbor table
   1  0.252  0.250  0.125-  10 2.25  11 2.25  13 2.27  16 2.27
   2  0.748  0.750  0.125-  10 2.25  11 2.25  13 2.27  16 2.27
   3  0.250  0.747  0.875-  11 2.25  12 2.25  13 2.27  14 2.27
   4  0.750  0.253  0.875-  11 2.25  12 2.25  13 2.27  14 2.27
   5  0.248  0.250  0.625-   9 2.25  12 2.25  15 2.27  14 2.27
   6  0.752  0.750  0.625-   9 2.25  12 2.25  15 2.27  14 2.27
   7  0.750  0.247  0.375-  10 2.25   9 2.25  16 2.27  15 2.27
   8  0.250  0.753  0.375-  10 2.25   9 2.25  16 2.27  15 2.27
   9  0.000  0.000  0.500-   5 2.25   6 2.25   7 2.25   8 2.25
  10  0.500  0.000  0.250-   1 2.25   2 2.25   7 2.25   8 2.25
  11  0.500  0.500  0.000-   1 2.25   2 2.25   4 2.25   3 2.25
  12  0.000  0.500  0.750-   5 2.25   6 2.25   4 2.25   3 2.25
  13  0.000  0.000  1.000-   2 2.27   1 2.27   3 2.27   4 2.27
  14  0.500  0.000  0.750-   6 2.27   5 2.27   3 2.27   4 2.27
  15  0.500  0.500  0.500-   6 2.27   5 2.27   8 2.27   7 2.27
  16  0.000  0.500  0.250-   2 2.27   1 2.27   8 2.27   7 2.27

  LATTYP: Found a simple orthorhombic cell.
 ALAT       =     5.1536099424
 B/A-ratio  =     1.0485247057
 C/A-ratio  =     1.9792277963

  Lattice vectors:

 A1 = (   5.1536099424,   0.0000000000,   0.0000000000)
 A2 = (   0.0000000000,   5.4036873481,   0.0000000000)
 A3 = (   0.0000000000,   0.0000000000,  10.2001680494)

Analysis of symmetry for initial positions (statically):
 Subroutine PRICEL returns following result:

  LATTYP: Found a body centered orthorhombic cell.
 ALAT       =     5.1536099424
 B/A-ratio  =     1.0485247057
 C/A-ratio  =     1.9792277963

[...]

   2 primitive cells build up your supercell.

 Routine SETGRP: Setting up the symmetry group for a
 simple orthorhombic supercell.

 Subroutine GETGRP returns: Found  4 space group operations
 (whereof  2 operations were pure point group operations)
 out of a pool of  8 trial point group operations.

The static configuration has the point symmetry C_2 .
 The point group associated with its full space group is D_2 .

Analysis of symmetry for dynamics (positions and initial velocities):
 Subroutine PRICEL returns following result:

[...]

The dynamic configuration has the point symmetry C_2 .
 The point group associated with its full space group is D_2 .

Analysis of structural, dynamic, and magnetic symmetry:
 Subroutine PRICEL returns following result:

  LATTYP: Found a body centered orthorhombic cell.
 ALAT       =     5.1536099424
 B/A-ratio  =     1.0485247057
 C/A-ratio  =     1.9792277963

  Lattice vectors:

 A1 = (   2.5768049712,  -2.7018436741,   5.1000840247)
 A2 = (  -2.5768049712,   2.7018436741,   5.1000840247)
 A3 = (  -2.5768049712,  -2.7018436741,  -5.1000840247)

   2 primitive cells build up your supercell.

 Routine SETGRP: Setting up the symmetry group for a
 simple orthorhombic supercell.

 Subroutine GETGRP returns: Found  4 space group operations
 (whereof  2 operations were pure point group operations)
 out of a pool of  8 trial point group operations.

The (compounded) configuration has the point symmetry C_2 .
 The point group associated with its full space group is D_2 .

 Subroutine INISYM returns: Found  4 space group operations
 (whereof  2 operations are pure point group operations),
 and found     2 'primitive' translations

 KPOINTS: Automatic mesh

Automatic generation of k-mesh.
Space group operators:
 irot       det(A)        alpha          n_x          n_y          n_z        tau_x        tau_y        tau_z
    1     1.000000     0.000000     1.000000     0.000000     0.000000     0.000000     0.000000     0.000000
    2     1.000000   180.000000     0.000000     0.000000     1.000000     0.000000     0.000000     0.000000
    3     1.000000   180.000000     0.000000     1.000000     0.000000     0.000000    -0.500000     0.250000
    4     1.000000   180.000000     1.000000     0.000000     0.000000     0.000000    -0.500000     0.250000

 Subroutine IBZKPT returns following result:

 Found     36 irreducible k-points:

 Following reciprocal coordinates:
            Coordinates               Weight
  0.000000  0.000000  0.000000      1.000000
  0.166667  0.000000  0.000000      2.000000
  0.333333  0.000000  0.000000      2.000000
  0.500000  0.000000  0.000000      1.000000
  0.000000  0.166667  0.000000      2.000000
  0.166667  0.166667  0.000000      4.000000
  0.333333  0.166667  0.000000      4.000000
  0.500000  0.166667  0.000000      2.000000
  0.000000  0.333333  0.000000      2.000000
  0.166667  0.333333  0.000000      4.000000
  0.333333  0.333333  0.000000      4.000000
  0.500000  0.333333  0.000000      2.000000
  0.000000  0.500000  0.000000      1.000000
  0.166667  0.500000  0.000000      2.000000
  0.333333  0.500000  0.000000      2.000000
  0.500000  0.500000  0.000000      1.000000
  0.000000  0.000000  0.333333      2.000000
  0.166667  0.000000  0.333333      4.000000
  0.333333  0.000000  0.333333      4.000000
  0.500000  0.000000  0.333333      2.000000
  0.000000  0.166667  0.333333      4.000000
  0.166667  0.166667  0.333333      4.000000
  0.333333  0.166667  0.333333      4.000000
  0.500000  0.166667  0.333333      4.000000
 -0.333333  0.166667  0.333333      4.000000
 -0.166667  0.166667  0.333333      4.000000
  0.000000  0.333333  0.333333      4.000000
  0.166667  0.333333  0.333333      4.000000
  0.333333  0.333333  0.333333      4.000000
  0.500000  0.333333  0.333333      4.000000
 -0.333333  0.333333  0.333333      4.000000
 -0.166667  0.333333  0.333333      4.000000
  0.000000  0.500000  0.333333      2.000000
  0.166667  0.500000  0.333333      4.000000
  0.333333  0.500000  0.333333      4.000000
  0.500000  0.500000  0.333333      2.000000

 Following cartesian coordinates:
            Coordinates               Weight
  0.000000  0.000000  0.000000      1.000000
  0.032340  0.000000  0.000000      2.000000
  0.064680  0.000000  0.000000      2.000000
  0.097019  0.000000  0.000000      1.000000
  0.000000  0.030843  0.000000      2.000000
  0.032340  0.030843  0.000000      4.000000
  0.064680  0.030843  0.000000      4.000000
  0.097019  0.030843  0.000000      2.000000
  0.000000  0.061686  0.000000      2.000000
  0.032340  0.061686  0.000000      4.000000
  0.064680  0.061686  0.000000      4.000000
  0.097019  0.061686  0.000000      2.000000
  0.000000  0.092529  0.000000      1.000000
  0.032340  0.092529  0.000000      2.000000
  0.064680  0.092529  0.000000      2.000000
  0.097019  0.092529  0.000000      1.000000
  0.000000  0.000000  0.032679      2.000000
  0.032340  0.000000  0.032679      4.000000
  0.064680  0.000000  0.032679      4.000000
  0.097019  0.000000  0.032679      2.000000
  0.000000  0.030843  0.032679      4.000000
  0.032340  0.030843  0.032679      4.000000
  0.064680  0.030843  0.032679      4.000000
  0.097019  0.030843  0.032679      4.000000
 -0.064680  0.030843  0.032679      4.000000
 -0.032340  0.030843  0.032679      4.000000
  0.000000  0.061686  0.032679      4.000000
  0.032340  0.061686  0.032679      4.000000
  0.064680  0.061686  0.032679      4.000000
  0.097019  0.061686  0.032679      4.000000
 -0.064680  0.061686  0.032679      4.000000
 -0.032340  0.061686  0.032679      4.000000
  0.000000  0.092529  0.032679      2.000000
  0.032340  0.092529  0.032679      4.000000
  0.064680  0.092529  0.032679      4.000000
  0.097019  0.092529  0.032679      2.000000

 TETIRR: Found    544 inequivalent tetrahedra from      648

 SYSTEM =  CuFeS2
 POSCAR =  sm_isp_SD0310437-standardized_unitcell

 Startparameter for this run:
   NWRITE =      2    write-flag & timer
   PREC   = accura    normal or accurate (medium, high low for compatibility)
   ISTART =      1    job   : 0-new  1-cont  2-samecut
   ICHARG =      1    charge: 1-file 2-atom 10-const
   ISPIN  =      1    spin polarized calculation?
   LNONCOLLINEAR =      T non collinear calculations
   LSORBIT =      F    spin-orbit coupling
   INIWAV =      1    electr: 0-lowe 1-rand  2-diag
   LASPH  =      T    aspherical Exc in radial PAW
   METAGGA=      F    non-selfconsistent MetaGGA calc.

 Electronic Relaxation 1
   ENCUT  =  700.0 eV  51.45 Ry    7.17 a.u.  11.12 11.66 22.00*2*pi/ulx,y,z
   ENINI  =  700.0     initial cutoff
   ENAUG  =  758.2 eV  augmentation charge cutoff
   NELM   =    200;   NELMIN=  2; NELMDL=  0     # of ELM steps
   EDIFF  = 0.1E-07   stopping-criterion for ELM
   LREAL  =      F    real-space projection
   NLSPLINE    = F    spline interpolate recip. space projectors
   LCOMPAT=      F    compatible to vasp.4.4
   GGA_COMPAT  = T    GGA compatible to vasp.4.4-vasp.4.6
   LMAXPAW     = -100 max onsite density
   LMAXMIX     =    4 max onsite mixed and CHGCAR
   VOSKOWN=      0    Vosko Wilk Nusair interpolation
   ROPT   =    0.00000   0.00000   0.00000
 Ionic relaxation
   EDIFFG = -.1E-04   stopping-criterion for IOM
   NSW    =      0    number of steps for IOM
   NBLOCK =      1;   KBLOCK =      1    inner block; outer block
   IBRION =     -1    ionic relax: 0-MD 1-quasi-New 2-CG
   NFREE  =      0    steps in history (QN), initial steepest desc. (CG)
   ISIF   =      2    stress and relaxation
   IWAVPR =     10    prediction:  0-non 1-charg 2-wave 3-comb
   ISYM   =      1    0-nonsym 1-usesym 2-fastsym
   LCORR  =      T    Harris-Foulkes like correction to forces

   POTIM  = 0.1000    time-step for ionic-motion
   TEIN   =    0.0    initial temperature
   TEBEG  =    0.0;   TEEND  =   0.0 temperature during run
   SMASS  =  -3.00    Nose mass-parameter (am)
   estimated Nose-frequenzy (Omega)   =  0.10E-29 period in steps =****** mass=  -0.607E-27a.u.
   SCALEE = 1.0000    scale energy and forces
   NPACO  =    256;   APACO  = 16.0  distance and # of slots for P.C.
   PSTRESS=    0.0 pullay stress

  Mass of Ions in am
   POMASS =  32.07 63.55 55.85
  Ionic Valenz
   ZVAL   =   6.00 17.00 14.00
  Atomic Wigner-Seitz radii
  virtual crystal weights
   VCA    =   1.00  1.00  1.00
   NELECT =     172.0000    total number of electrons
   NUPDOWN=      -1.0000    fix difference up-down

[...]

 Broyden mixing: mesh for mixing (old mesh)
   NGX = 23   NGY = 23   NGZ = 45
  (NGX  = 96   NGY  = 96   NGZ  =180)
  gives a total of  23805 points

 initial charge density was supplied:
 number of electron     171.9999887 magnetization      -0.0000000      0.0000000      0.0000000
 charge density for first step will be calculated from the start-wavefunctions

 BZINTS: Fermi energy:  5.009280;172.000000 electrons
         Band energy:***********;  BLOECHL correction:  0.000000
 Maximum index for augmentation-charges          885 (set IRDMAX)

 initial charge from wavefunction
 First call to EWALD:  gamma=   0.270
 Maximum number of real-space cells 3x 3x 2
 Maximum number of reciprocal cells 2x 2x 4

--------------------------------------- Iteration      1(   1)  ---------------------------------------

 BZINTS: Fermi energy:  5.009278;172.000000 electrons
         Band energy:***********;  BLOECHL correction:  0.000000
 BZINTS: Fermi energy:  5.009278;172.000000 electrons
         Band energy:***********;  BLOECHL correction:  0.000000

 eigenvalue-minimisations  :     0
 total energy-change (2. order) :-0.8200588E+02  (-0.9637555E-05)
 number of electron     171.9999887 magnetization       0.0000000      0.0000000      0.0000000
 augmentation part       70.5509786 magnetization      -0.0000000     -0.0000003     -0.0002959

 Free energy of the ion-electron system (eV)
  alpha Z        PSCENC =       596.51939081
  Ewald energy   TEWEN  =    -15686.32389350
  -Hartree energ DENC   =    -10695.68413178
  -exchange      EXHF   =         0.00000000
  -V(xc)+E(xc)   XCENC  =       822.03643990
  PAW double counting   =     28184.82100946   -29108.61907599
  entropy T*S    EENTRO =         0.00000000
  eigenvalues    EBANDS =     -2699.77189500
  atomic energy  EATOM  =     28505.01627691
  free energy    TOTEN  =       -82.00587918 eV

  energy without entropy =      -82.00587918  energy(sigma->0) =      -82.00587918

[...]

--------------------------------------- Iteration      1(  33)  ---------------------------------------

 BZINTS: Fermi energy:  5.009278;172.000000 electrons
         Band energy:***********;  BLOECHL correction:  0.000000
 BZINTS: Fermi energy:  5.009278;172.000000 electrons
         Band energy:***********;  BLOECHL correction:  0.000000

 eigenvalue-minimisations  :     0
 total energy-change (2. order) :-0.5431502E-08  (-0.4951233E-08)
 number of electron     171.9999887 magnetization       0.0000000      0.0000000      0.0000000
 augmentation part       70.5509789 magnetization      -0.0000000      0.0000001     -0.0002959

 Free energy of the ion-electron system (eV)
  alpha Z        PSCENC =       596.51939081
  Ewald energy   TEWEN  =    -15686.32389350
  -Hartree energ DENC   =    -10695.68410042
  -exchange      EXHF   =         0.00000000
  -V(xc)+E(xc)   XCENC  =       822.03642770
  PAW double counting   =     28184.82231487   -29108.62038490
  entropy T*S    EENTRO =         0.00000000
  eigenvalues    EBANDS =     -2699.77193820
  atomic energy  EATOM  =     28505.01627691
  free energy    TOTEN  =       -82.00590674 eV

  energy without entropy =      -82.00590674  energy(sigma->0) =      -82.00590674

  average scaling for gradient   0.9124

 average (electrostatic) potential at core
  the test charge radii are     0.9698  0.8297  0.9500
  (the norm of the test charge is              1.0000)
       1 -86.5134       2 -86.5134       3 -86.5107       4 -86.5107       5 -86.5134
       6 -86.5134       7 -86.5107       8 -86.5107       9 -80.6144      10 -80.6144
      11 -80.6144      12 -80.6144      13 -80.0500      14 -80.0500      15 -80.0500
      16 -80.0500

 E-fermi :   5.0093     XC(G=0): -10.5304     alpha+bet :-10.6803

 k-point     1 :       0.0000    0.0000    0.0000
  band No.  band energies     occupation
      1     -64.2090      1.00000
      2     -64.2090      1.00000
      3     -64.2090      1.00000
      4     -64.2090      1.00000
      5     -64.2011      1.00000
      6     -64.2011      1.00000
      7     -64.2011      1.00000
      8     -64.2011      1.00000
      9     -64.1978      1.00000
     10     -64.1978      1.00000
     11     -64.1977      1.00000
     12     -64.1977      1.00000
     13     -64.1867      1.00000
     14     -64.1867      1.00000
     15     -64.1866      1.00000
     16     -64.1866      1.00000
     17     -64.1847      1.00000
     18     -64.1847      1.00000
     19     -64.1847      1.00000
     20     -64.1847      1.00000
     21     -64.1725      1.00000
     22     -64.1725      1.00000
     23     -64.1724      1.00000
     24     -64.1724      1.00000
     25     -51.7251      1.00000
     26     -51.7251      1.00000
     27     -51.7251      1.00000
     28     -51.7251      1.00000
     29     -51.6869      1.00000
     30     -51.6869      1.00000
     31     -51.6868      1.00000
     32     -51.6868      1.00000
     33     -51.6126      1.00000
     34     -51.6126      1.00000
     35     -51.6126      1.00000
     36     -51.6126      1.00000
     37     -47.5770      1.00000
     38     -47.5770      1.00000
     39     -47.5770      1.00000
     40     -47.5770      1.00000
     41     -47.5718      1.00000
     42     -47.5718      1.00000
     43     -47.5718      1.00000
     44     -47.5718      1.00000
     45     -47.5373      1.00000
     46     -47.5373      1.00000
     47     -47.5373      1.00000
     48     -47.5373      1.00000
     49      -9.0529      1.00000
     50      -9.0529      1.00000
     51      -8.4096      1.00000
     52      -8.4096      1.00000
     53      -8.3854      1.00000
     54      -8.3854      1.00000
     55      -7.7423      1.00000
     56      -7.7423      1.00000
     57      -7.6889      1.00000
     58      -7.6889      1.00000
     59      -7.6785      1.00000
     60      -7.6785      1.00000
[...]
    194       7.8851      0.00000
    195       8.8317      0.00000
    196       8.8317      0.00000
    197       8.8561      0.00000
    198       8.8561      0.00000
    199       9.1800      0.00000
    200       9.1800      0.00000
    201       9.4652      0.00000
    202       9.4652      0.00000
    203       9.7243      0.00000
    204       9.7243      0.00000
    205      10.1227      0.00000
    206      10.1227      0.00000
    207      10.1969      0.00000
    208      10.1969      0.00000

[...]

 k-point    36 :       0.5000    0.5000    0.3333
  band No.  band energies     occupation
      1     -64.2090      1.00000
      2     -64.2090      1.00000
      3     -64.2090      1.00000
      4     -64.2090      1.00000
      5     -64.2011      1.00000
      6     -64.2011      1.00000
      7     -64.2011      1.00000
      8     -64.2011      1.00000
      9     -64.1978      1.00000
     10     -64.1978      1.00000
     11     -64.1978      1.00000
     12     -64.1978      1.00000
     13     -64.1866      1.00000
     14     -64.1866      1.00000
     15     -64.1866      1.00000
     16     -64.1866      1.00000
     17     -64.1847      1.00000
     18     -64.1847      1.00000
     19     -64.1847      1.00000
     20     -64.1847      1.00000
     21     -64.1725      1.00000
     22     -64.1725      1.00000
     23     -64.1725      1.00000
     24     -64.1725      1.00000
     25     -51.7251      1.00000
     26     -51.7251      1.00000
     27     -51.7251      1.00000
     28     -51.7251      1.00000
     29     -51.6869      1.00000
     30     -51.6869      1.00000
     31     -51.6869      1.00000
     32     -51.6869      1.00000
     33     -51.6126      1.00000
     34     -51.6126      1.00000
     35     -51.6126      1.00000
     36     -51.6126      1.00000
     37     -47.5770      1.00000
     38     -47.5770      1.00000
     39     -47.5770      1.00000
     40     -47.5770      1.00000
     41     -47.5718      1.00000
     42     -47.5718      1.00000
     43     -47.5718      1.00000
     44     -47.5718      1.00000
     45     -47.5373      1.00000
     46     -47.5373      1.00000
     47     -47.5373      1.00000
     48     -47.5373      1.00000
     49      -8.0514      1.00000
     50      -8.0514      1.00000
     51      -8.0511      1.00000
     52      -8.0511      1.00000
     53      -8.0486      1.00000
     54      -8.0486      1.00000
     55      -8.0442      1.00000
     56      -8.0442      1.00000
     57      -8.0299      1.00000
     58      -8.0299      1.00000
     59      -8.0227      1.00000
     60      -8.0227      1.00000
[...]
    194       9.5100      0.00000
    195       9.5124      0.00000
    196       9.5124      0.00000
    197       9.7319      0.00000
    198       9.7319      0.00000
    199       9.7412      0.00000
    200       9.7412      0.00000
    201      10.2045      0.00000
    202      10.2045      0.00000
    203      10.2056      0.00000
    204      10.2056      0.00000
    205      10.6134      0.00000
    206      10.6134      0.00000
    207      10.6241      0.00000
    208      10.6241      0.00000

 soft charge-density along one line, spin component           1
         0         1         2         3         4         5         6         7         8         9
 total charge-density along one line

[...]

 soft charge-density along one line, spin component           4
         0         1         2         3         4         5         6         7         8         9
 total charge-density along one line

------------------------ aborting loop because EDIFF is reached ----------------------------------------

 total charge

# of ion       s       p       d       tot
    1        1.314   2.416   0.000   3.729
    2        1.314   2.415   0.000   3.729
    3        1.314   2.413   0.000   3.727
    4        1.314   2.413   0.000   3.727
    5        1.314   2.415   0.000   3.729
    6        1.314   2.416   0.000   3.729
    7        1.314   2.413   0.000   3.727
    8        1.314   2.413   0.000   3.727
    9        0.263   6.207   8.916  15.385
   10        0.263   6.207   8.916  15.386
   11        0.263   6.207   8.916  15.385
   12        0.263   6.207   8.916  15.386
   13        0.352   6.357   5.831  12.540
   14        0.352   6.357   5.831  12.540
   15        0.352   6.357   5.831  12.540
   16        0.352   6.357   5.831  12.540
tot         12.970  69.572  58.985 141.527

 magnetization (x)

[...]

 magnetization (y)

[...]

 magnetization (z)

[...]

  FORCE on cell =-STRESS in cart. coord.  units (eV):
  Direction    XX          YY          ZZ          XY          YZ          ZX
  Alpha Z   596.51939   596.51939   596.51939
  Ewald   -5291.42332 -5073.30780 -5321.62945     0.00000     0.00000     0.00000
  Hartree  3532.92055  3635.22288  3527.54067    -0.00000     0.00000    -0.00000
  E(xc)   -1051.10639 -1050.97928 -1051.10195    -0.00000    -0.00000    -0.00000
  Local   -1132.78643 -1452.24481 -1093.91023    -0.00000    -0.00000    -0.00000
  n-local   122.03903   124.92091   122.04177    -0.22277    -0.07601    -0.01543
  augment  1180.88259  1182.55782  1178.54983     0.00000    -0.00000    -0.00000
  Kinetic  2045.89874  2037.31121  2044.67277    -0.85079     0.04910    -0.00111
  Fock        0.00000     0.00000     0.00000     0.00000     0.00000     0.00000
  Total       2.94417     0.00032     2.68281     0.00000     0.00000     0.00000
  in kB      16.60599     0.00181    15.13180     0.00000     0.00000     0.00000

 VOLUME and BASIS-vectors are now :
  energy-cutoff  :      700.00
  volume of cell :      284.06
      direct lattice vectors                 reciprocal lattice vectors
     5.153609942  0.000000000  0.000000000     0.194038744  0.000000000  0.000000000
     0.000000000  5.403687348  0.000000000     0.000000000  0.185058819  0.000000000
     0.000000000  0.000000000 10.200168049     0.000000000  0.000000000  0.098037600

  length of vectors
     5.153609942  5.403687348 10.200168049     0.194038744  0.185058819  0.098037600

 FORCES acting on ions:
    Electron-Ion                     Ewald-Force                    Non-Local-Force
   0.417E+02 -.198E-12 -.239E-12   -.425E+02 0.725E-12 0.145E-11   0.834E+00 0.000E+00 0.130E-17
   -.417E+02 -.182E-13 0.834E-12   0.425E+02 -.129E-11 0.148E-11   -.834E+00 0.000E+00 -.867E-18
   -.131E-12 -.445E+02 0.209E-12   -.147E-10 0.454E+02 0.144E-10   0.152E-17 -.916E+00 0.596E-18
   -.124E-12 0.445E+02 0.129E-11   0.143E-10 -.454E+02 0.142E-10   0.867E-18 0.916E+00 0.867E-18
   -.417E+02 -.802E-13 -.263E-12   0.425E+02 0.640E-12 -.144E-11   -.834E+00 0.000E+00 -.867E-18
   0.417E+02 0.266E-12 -.258E-12   -.425E+02 -.130E-11 -.148E-11   0.834E+00 -.867E-18 0.434E-18
   0.157E-13 -.445E+02 0.830E-12   0.142E-10 0.454E+02 -.145E-10   -.217E-18 -.916E+00 0.146E-17
   -.219E-12 0.445E+02 0.334E-13   -.147E-10 -.454E+02 -.143E-10   0.867E-18 0.916E+00 -.867E-18
   -.557E-12 0.368E-12 -.203E+01   0.118E-04 -.247E-04 0.204E+01   0.217E-18 -.434E-18 -.178E-01
   0.100E-11 -.463E-12 0.203E+01   -.118E-04 -.247E-04 -.204E+01   -.217E-18 0.651E-18 0.178E-01
   0.960E-12 0.337E-11 -.203E+01   -.118E-04 0.247E-04 0.204E+01   0.217E-18 0.434E-18 -.178E-01
   -.430E-12 0.335E-11 0.203E+01   0.118E-04 0.247E-04 -.204E+01   -.217E-18 0.651E-18 0.178E-01
   -.310E-12 -.158E-12 0.529E+01   -.902E-05 0.207E-04 -.529E+01   0.434E-18 0.434E-18 -.140E-02
   0.159E-12 0.305E-12 -.529E+01   0.902E-05 0.207E-04 0.529E+01   0.434E-18 -.651E-18 0.140E-02
   0.325E-12 -.558E-12 0.529E+01   0.902E-05 -.207E-04 -.529E+01   0.434E-18 -.434E-18 -.140E-02
   -.472E-12 0.121E-11 -.529E+01   -.902E-05 -.207E-04 0.529E+01   0.434E-18 -.651E-18 0.140E-02
   0.260E-11 0.177E-10 -.453E-09   -.127E-13 -.938E-13 0.488E-13   -.220E-15 0.000E+00 -.104E-16

 POSITION                                       TOTAL-FORCE (eV/Angst)
      1.29994      1.35092      1.27502        -0.000001      0.000000      0.000000
      3.85367      4.05277      1.27502         0.000001      0.000000     -0.000000
      1.28840      4.03849      8.92515         0.000000     -0.000001      0.000000
      3.86521      1.36519      8.92515         0.000000      0.000001      0.000000
      1.27687      1.35092      6.37511         0.000001      0.000000      0.000000
      3.87674      4.05277      6.37511        -0.000001      0.000000      0.000000
      3.86521      1.33665      3.82506         0.000000     -0.000001      0.000000
      1.28840      4.06704      3.82506         0.000000      0.000001      0.000000
      0.00000      0.00000      5.10426         0.000000      0.000000     -0.000010
      2.57680      0.00000      2.54587         0.000000      0.000000      0.000010
      2.57680      2.70184      0.00417         0.000000      0.000000     -0.000010
      0.00000      2.70184      7.64595         0.000000      0.000000      0.000010
      0.00000      0.00000     10.20003         0.000000      0.000000     -0.000004
      2.57680      0.00000      7.65026         0.000000      0.000000      0.000004
      2.57680      2.70184      5.09995         0.000000      0.000000     -0.000004
      0.00000      2.70184      2.55018         0.000000      0.000000      0.000004
    total drift:                                0.000000      0.000000     -0.000000

  FREE ENERGIE OF THE ION-ELECTRON SYSTEM (eV)
  free  energy   TOTEN  =       -82.00590674 eV

  energy  without entropy=      -82.00590674  energy(sigma->0) =      -82.00590674

 writing wavefunctions

 total charge

[...]

 magnetization (x)

[...]

 magnetization (y)

[...]

 magnetization (z)

# of ion       s       p       d       tot
    1        0.000  -0.003   0.000  -0.003
    2        0.000  -0.003   0.000  -0.003
    3       -0.000   0.003   0.000   0.003
    4       -0.000   0.003   0.000   0.003
    5        0.000  -0.003   0.000  -0.003
    6        0.000  -0.003   0.000  -0.003
    7       -0.000   0.003   0.000   0.003
    8       -0.000   0.003   0.000   0.003
    9        0.000   0.001  -0.004  -0.002
   10       -0.000  -0.001   0.003   0.002
   11        0.000   0.001  -0.004  -0.002
   12       -0.000  -0.001   0.003   0.002
   13        0.019   0.055   3.654   3.728
   14       -0.019  -0.055  -3.653  -3.728
   15        0.019   0.055   3.654   3.728
   16       -0.019  -0.055  -3.653  -3.728
tot         -0.000   0.000  -0.000  -0.000

 BZINTS: Fermi energy:  5.009280;172.000000 electrons
         Band energy:***********;  BLOECHL correction:  0.000000
 BZINTS: Fermi energy:  5.009280;172.000000 electrons
         Band energy:***********;  BLOECHL correction:  0.000000
 BZINTS: Fermi energy:  5.009280;172.000000 electrons
         Band energy:***********;  BLOECHL correction:  0.000000
 BZINTS: Fermi energy:  5.009280;172.000000 electrons
         Band energy:***********;  BLOECHL correction:  0.000000