 vasp.5.4.4.18Apr17-6-g9f103f2a35 (build Oct 30 2023 17:30:16) complex

 executed on             LinuxIFC date 2024.06.28  15:45:22

 INCAR:
 POTCAR:    PAW_PBE S 06Sep2000
 POTCAR:     PAW_PBE Cu_pv 06Sep2000
 POTCAR:     PAW_PBE Fe_pv 02Aug2007

   TITEL  = PAW_PBE S 06Sep2000
   POMASS =   32.066; ZVAL   =    6.000    mass and valenz
   ENMAX  =  258.689; ENMIN  =  194.016 eV

   TITEL  = PAW_PBE Cu_pv 06Sep2000
   POMASS =   63.546; ZVAL   =   17.000    mass and valenz
   ENMAX  =  368.648; ENMIN  =  276.486 eV

   TITEL  = PAW_PBE Fe_pv 02Aug2007
   POMASS =   55.847; ZVAL   =   14.000    mass and valenz
   ENMAX  =  293.238; ENMIN  =  219.928 eV

 Optimization of the real space projectors (new method)

 maximal supplied QI-value         = 19.84
 optimisation between [QCUT,QGAM] = [ 12.90, 25.99] = [ 46.58,189.20] Ry
 Optimized for a Real-space Cutoff    1.15 Angstroem

   l    n(q)    QCUT    max X(q) W(low)/X(q) W(high)/X(q)  e(spline)
   0      9    12.897   187.594    0.20E-03    0.14E-04    0.80E-07
   0      9    12.897   164.243    0.20E-03    0.14E-04    0.79E-07
   1      8    12.897    67.533    0.61E-04    0.23E-03    0.12E-06
   1      8    12.897    50.729    0.59E-04    0.23E-03    0.12E-06
 Optimization of the real space projectors (new method)

[...]

   l    n(q)    QCUT    max X(q) W(low)/X(q) W(high)/X(q)  e(spline)
   1     10    13.039     3.172    0.21E-04    0.27E-04    0.95E-07
   1     10    13.039     4.083    0.40E-04    0.42E-04    0.15E-06
   2      9    13.039    65.342    0.23E-03    0.16E-04    0.24E-06
   2      9    13.039    61.381    0.24E-03    0.17E-04    0.25E-06
   0     10    13.039    65.742    0.37E-04    0.36E-05    0.90E-07
   0     10    13.039    30.431    0.29E-04    0.28E-05    0.80E-07
 Optimization of the real space projectors (new method)

 maximal supplied QI-value         = 17.01
 optimisation between [QCUT,QGAM] = [ 12.93, 26.02] = [ 46.79,189.61] Ry
 Optimized for a Real-space Cutoff    1.33 Angstroem

   l    n(q)    QCUT    max X(q) W(low)/X(q) W(high)/X(q)  e(spline)
   1     10    12.926     4.267    0.15E-03    0.28E-04    0.26E-06
   1     10    12.926     5.750    0.22E-03    0.53E-04    0.41E-06
   2      9    12.926    53.656    0.17E-03    0.37E-04    0.23E-06
   2      9    12.926    49.521    0.18E-03    0.38E-04    0.23E-06
   0     10    12.926    31.246    0.38E-04    0.36E-05    0.15E-06
   0     10    12.926    12.201    0.33E-04    0.31E-05    0.12E-06

  PAW_PBE S 06Sep2000                   :
   PAW_PBE Cu_pv 06Sep2000              :
   PAW_PBE Fe_pv 02Aug2007              :

 POSCAR: Fe16 Cu16 S32
  positions in direct lattice
 exchange correlation table for  LEXCH =       14
   RHO(1)=    0.500       N(1)  =     2000
   RHO(2)=  100.500       N(2)  =     4000

 ion  position               nearest neighbor table
   1  0.126  0.125  0.124-  37 2.26  41 2.26  61 2.27  49 2.28
   2  0.626  0.125  0.124-  38 2.26  42 2.26  62 2.27  50 2.28
   3  0.126  0.625  0.124-  39 2.26  43 2.26  63 2.27  51 2.28
   4  0.626  0.625  0.124-  40 2.26  44 2.26  64 2.27  52 2.28
   5  0.374  0.375  0.124-  39 2.26  41 2.26  62 2.27  52 2.28
   6  0.874  0.375  0.124-  40 2.26  42 2.26  61 2.27  51 2.28
   7  0.374  0.875  0.124-  37 2.26  43 2.26  64 2.27  50 2.28
   8  0.874  0.875  0.124-  38 2.26  44 2.26  63 2.27  49 2.28
   9  0.125  0.374  0.874-  41 2.26  45 2.26  51 2.27  55 2.28
  10  0.625  0.374  0.874-  42 2.26  46 2.26  52 2.27  56 2.28
  11  0.125  0.874  0.874-  43 2.26  47 2.26  49 2.27  53 2.28
  12  0.625  0.874  0.874-  44 2.26  48 2.26  50 2.27  54 2.28
  13  0.375  0.126  0.874-  41 2.26  46 2.26  50 2.27  53 2.28
  14  0.875  0.126  0.874-  42 2.26  45 2.26  49 2.27  54 2.28
  15  0.375  0.626  0.874-  43 2.26  48 2.26  52 2.27  55 2.28
  16  0.875  0.626  0.874-  44 2.26  47 2.26  51 2.27  56 2.28
  17  0.124  0.125  0.624-  45 2.26  33 2.26  53 2.27  57 2.28
  18  0.624  0.125  0.624-  46 2.26  34 2.26  54 2.27  58 2.28
  19  0.124  0.625  0.624-  47 2.26  35 2.26  55 2.27  59 2.28
  20  0.624  0.625  0.624-  48 2.26  36 2.26  56 2.27  60 2.28
  21  0.376  0.375  0.624-  46 2.26  36 2.26  55 2.27  57 2.28
  22  0.876  0.375  0.624-  45 2.26  35 2.26  56 2.27  58 2.28
  23  0.376  0.875  0.624-  48 2.26  34 2.26  53 2.27  59 2.28
  24  0.876  0.875  0.624-  47 2.26  33 2.26  54 2.27  60 2.28
  25  0.375  0.124  0.374-  34 2.26  37 2.26  57 2.27  62 2.28
  26  0.875  0.124  0.374-  33 2.26  38 2.26  58 2.27  61 2.28
  27  0.375  0.624  0.374-  36 2.26  39 2.26  59 2.27  64 2.28
  28  0.875  0.624  0.374-  35 2.26  40 2.26  60 2.27  63 2.28
  29  0.125  0.376  0.374-  35 2.26  39 2.26  57 2.27  61 2.28
  30  0.625  0.376  0.374-  36 2.26  40 2.26  58 2.27  62 2.28
  31  0.125  0.876  0.374-  33 2.26  37 2.26  59 2.27  63 2.28
  32  0.625  0.876  0.374-  34 2.26  38 2.26  60 2.27  64 2.28
  33  0.000  0.000  0.501-  26 2.26  31 2.26  17 2.26  24 2.26
  34  0.500  0.000  0.501-  25 2.26  32 2.26  18 2.26  23 2.26
  35  0.000  0.500  0.501-  28 2.26  29 2.26  19 2.26  22 2.26
  36  0.500  0.500  0.501-  27 2.26  30 2.26  20 2.26  21 2.26
  37  0.250  0.000  0.251-   1 2.26   7 2.26  25 2.26  31 2.26
  38  0.750  0.000  0.251-   2 2.26   8 2.26  26 2.26  32 2.26
  39  0.250  0.500  0.251-   3 2.26   5 2.26  27 2.26  29 2.26
  40  0.750  0.500  0.251-   4 2.26   6 2.26  28 2.26  30 2.26
  41  0.250  0.250  0.001-   9 2.26  13 2.26   1 2.26   5 2.26
  42  0.750  0.250  0.001-  10 2.26  14 2.26   2 2.26   6 2.26
  43  0.250  0.750  0.001-  11 2.26  15 2.26   3 2.26   7 2.26
  44  0.750  0.750  0.001-  12 2.26  16 2.26   4 2.26   8 2.26
  45  0.000  0.250  0.751-  17 2.26  22 2.26   9 2.26  14 2.26
  46  0.500  0.250  0.751-  18 2.26  21 2.26  10 2.26  13 2.26
  47  0.000  0.750  0.751-  19 2.26  24 2.26  11 2.26  16 2.26
  48  0.500  0.750  0.751-  20 2.26  23 2.26  12 2.26  15 2.26
  49  0.000  0.000  0.001-  11 2.27  14 2.27   1 2.28   8 2.28
  50  0.500  0.000  0.001-  12 2.27  13 2.27   2 2.28   7 2.28
  51  0.000  0.500  0.001-   9 2.27  16 2.27   3 2.28   6 2.28
  52  0.500  0.500  0.001-  10 2.27  15 2.27   4 2.28   5 2.28
  53  0.250  0.000  0.751-  17 2.27  23 2.27  11 2.28  13 2.28
  54  0.750  0.000  0.751-  18 2.27  24 2.27  12 2.28  14 2.28
  55  0.250  0.500  0.751-  19 2.27  21 2.27   9 2.28  15 2.28
  56  0.750  0.500  0.751-  20 2.27  22 2.27  10 2.28  16 2.28
  57  0.250  0.250  0.501-  25 2.27  29 2.27  17 2.28  21 2.28
  58  0.750  0.250  0.501-  26 2.27  30 2.27  18 2.28  22 2.28
  59  0.250  0.750  0.501-  27 2.27  31 2.27  19 2.28  23 2.28
  60  0.750  0.750  0.501-  28 2.27  32 2.27  20 2.28  24 2.28
  61  0.000  0.250  0.251-   1 2.27   6 2.27  26 2.28  29 2.28
  62  0.500  0.250  0.251-   2 2.27   5 2.27  25 2.28  30 2.28
  63  0.000  0.750  0.251-   3 2.27   8 2.27  28 2.28  31 2.28
  64  0.500  0.750  0.251-   4 2.27   7 2.27  27 2.28  32 2.28

  LATTYP: Found a base centered orthorhombic cell.
 ALAT       =    14.7365027139
 B/A-ratio  =     1.0175910803
 C/A-ratio  =     0.7068295105

  Lattice vectors:

 A1 = (  10.5119330000,   0.0916520000,   0.0000000000)
 A2 = (  -0.0916520000, -10.5119330000,   0.0000000000)
 A3 = (   0.0000000000,   0.0000000000, -10.4161950000)

Analysis of symmetry for initial positions (statically):
 Subroutine PRICEL returns following result:

  LATTYP: Found a face centered orthorhombic cell.
 ALAT       =     7.3682513570
 B/A-ratio  =     1.0175910803
 C/A-ratio  =     1.4136590210

[...]

   8 primitive cells build up your supercell.

 Routine SETGRP: Setting up the symmetry group for a
 base centered orthorhombic supercell.

 Subroutine GETGRP returns: Found  4 space group operations
 (whereof  2 operations were pure point group operations)
 out of a pool of  8 trial point group operations.

The static configuration has the point symmetry C_2 .
 The point group associated with its full space group is C_2v.

Analysis of symmetry for dynamics (positions and initial velocities):
 Subroutine PRICEL returns following result:

[...]

The dynamic configuration has the point symmetry C_2 .
 The point group associated with its full space group is C_2v.

Analysis of structural, dynamic, and magnetic symmetry:
 Subroutine PRICEL returns following result:

  LATTYP: Found a face centered orthorhombic cell.
 ALAT       =     7.3682513570
 B/A-ratio  =     1.0175910803
 C/A-ratio  =     1.4136590210

  Lattice vectors:

 A1 = (  -2.6508962500,  -2.6508962500,   5.2080975000)
 A2 = (  -2.6050702500,   2.6050702500,   5.2080975000)
 A3 = (  -5.2559665000,  -0.0458260000,  -0.0000000000)

   8 primitive cells build up your supercell.

 Routine SETGRP: Setting up the symmetry group for a
 base centered orthorhombic supercell.

 Subroutine GETGRP returns: Found  4 space group operations
 (whereof  2 operations were pure point group operations)
 out of a pool of  8 trial point group operations.

The magnetic configuration has the point symmetry C_2 .
 The point group associated with its full space group is C_2v.

 Subroutine INISYM returns: Found  4 space group operations
 (whereof  2 operations are pure point group operations),
 and found     8 'primitive' translations

 KPOINTS: Automatic mesh

Automatic generation of k-mesh.
Space group operators:
 irot       det(A)        alpha          n_x          n_y          n_z        tau_x        tau_y        tau_z
    1     1.000000     0.000001     1.000000     0.000000     0.000000     0.000000     0.000000     0.000000
    2     1.000000   179.999999     0.000000     0.000000     1.000000     0.000000     0.000000     0.000000
    3    -1.000000   180.000000     0.707107     0.707107     0.000000    -0.750000    -0.000000     0.750000
    4    -1.000000   180.000000     0.707107    -0.707107     0.000000    -0.750000    -0.000000     0.750000

 Subroutine IBZKPT returns following result:

 Found      6 irreducible k-points:

 Following reciprocal coordinates:
            Coordinates               Weight
  0.000000  0.000000  0.000000      1.000000
  0.500000  0.000000  0.000000      2.000000
  0.500000  0.500000  0.000000      1.000000
  0.000000  0.000000  0.500000      1.000000
  0.500000  0.000000  0.500000      2.000000
  0.500000  0.500000  0.500000      1.000000

 Following cartesian coordinates:
            Coordinates               Weight
  0.000000  0.000000  0.000000      1.000000
  0.047569 -0.000415  0.000000      2.000000
  0.047154  0.047154  0.000000      1.000000
  0.000000  0.000000  0.048002      1.000000
  0.047569 -0.000415  0.048002      2.000000
  0.047154  0.047154  0.048002      1.000000

 TETIRR: Found     12 inequivalent tetrahedra from       48

 Subroutine IBZKPT_HF returns following result:

 Found      8 k-points in 1st BZ
 the following      8 k-points will be used (e.g. in the exchange kernel)
 Following reciprocal coordinates:   # in IRBZ
  0.000000  0.000000  0.000000    0.12500000   1 t-inv F
  0.500000  0.000000  0.000000    0.12500000   2 t-inv F
  0.500000  0.500000  0.000000    0.12500000   3 t-inv F
  0.000000  0.000000  0.500000    0.12500000   4 t-inv F
  0.500000  0.000000  0.500000    0.12500000   5 t-inv F
  0.500000  0.500000  0.500000    0.12500000   6 t-inv F
[...]
   0.422E+02 -.145E+00 0.538E+01   -.430E+02 0.138E+00 -.543E+01   0.861E+00 0.796E-02 0.538E-01   0.474E-04 0.287E-05 -.495E-05
   -.422E+02 0.145E+00 0.538E+01   0.430E+02 -.138E+00 -.543E+01   -.861E+00 -.796E-02 0.538E-01   -.474E-04 -.287E-05 -.495E-05
   -.422E+02 0.145E+00 0.538E+01   0.430E+02 -.138E+00 -.543E+01   -.861E+00 -.796E-02 0.538E-01   -.474E-04 -.287E-05 -.495E-05
   -.422E+02 0.145E+00 0.538E+01   0.430E+02 -.138E+00 -.543E+01   -.861E+00 -.796E-02 0.538E-01   -.474E-04 -.287E-05 -.495E-05
   -.422E+02 0.145E+00 0.538E+01   0.430E+02 -.138E+00 -.543E+01   -.861E+00 -.796E-02 0.538E-01   -.474E-04 -.287E-05 -.495E-05
   0.145E+00 -.422E+02 0.538E+01   -.138E+00 0.430E+02 -.543E+01   -.796E-02 -.861E+00 0.538E-01   -.287E-05 -.474E-04 -.495E-05
   0.145E+00 -.422E+02 0.538E+01   -.138E+00 0.430E+02 -.543E+01   -.796E-02 -.861E+00 0.538E-01   -.287E-05 -.474E-04 -.495E-05
   0.145E+00 -.422E+02 0.538E+01   -.138E+00 0.430E+02 -.543E+01   -.796E-02 -.861E+00 0.538E-01   -.287E-05 -.474E-04 -.495E-05
   0.145E+00 -.422E+02 0.538E+01   -.138E+00 0.430E+02 -.543E+01   -.796E-02 -.861E+00 0.538E-01   -.287E-05 -.474E-04 -.495E-05
   -.145E+00 0.422E+02 0.538E+01   0.138E+00 -.430E+02 -.543E+01   0.796E-02 0.861E+00 0.538E-01   0.287E-05 0.474E-04 -.495E-05
   -.145E+00 0.422E+02 0.538E+01   0.138E+00 -.430E+02 -.543E+01   0.796E-02 0.861E+00 0.538E-01   0.287E-05 0.474E-04 -.495E-05
   -.145E+00 0.422E+02 0.538E+01   0.138E+00 -.430E+02 -.543E+01   0.796E-02 0.861E+00 0.538E-01   0.287E-05 0.474E-04 -.495E-05
   -.145E+00 0.422E+02 0.538E+01   0.138E+00 -.430E+02 -.543E+01   0.796E-02 0.861E+00 0.538E-01   0.287E-05 0.474E-04 -.495E-05
   -.422E+02 0.145E+00 0.538E+01   0.430E+02 -.138E+00 -.543E+01   -.861E+00 -.796E-02 0.538E-01   -.474E-04 -.287E-05 -.495E-05
   -.422E+02 0.145E+00 0.538E+01   0.430E+02 -.138E+00 -.543E+01   -.861E+00 -.796E-02 0.538E-01   -.474E-04 -.287E-05 -.495E-05
   -.422E+02 0.145E+00 0.538E+01   0.430E+02 -.138E+00 -.543E+01   -.861E+00 -.796E-02 0.538E-01   -.474E-04 -.287E-05 -.495E-05
   -.422E+02 0.145E+00 0.538E+01   0.430E+02 -.138E+00 -.543E+01   -.861E+00 -.796E-02 0.538E-01   -.474E-04 -.287E-05 -.495E-05
   0.422E+02 -.145E+00 0.538E+01   -.430E+02 0.138E+00 -.543E+01   0.861E+00 0.796E-02 0.538E-01   0.474E-04 0.287E-05 -.495E-05
   0.422E+02 -.145E+00 0.538E+01   -.430E+02 0.138E+00 -.543E+01   0.861E+00 0.796E-02 0.538E-01   0.474E-04 0.287E-05 -.495E-05
   0.422E+02 -.145E+00 0.538E+01   -.430E+02 0.138E+00 -.543E+01   0.861E+00 0.796E-02 0.538E-01   0.474E-04 0.287E-05 -.495E-05
   0.422E+02 -.145E+00 0.538E+01   -.430E+02 0.138E+00 -.543E+01   0.861E+00 0.796E-02 0.538E-01   0.474E-04 0.287E-05 -.495E-05
   0.145E+00 -.422E+02 0.538E+01   -.138E+00 0.430E+02 -.543E+01   -.796E-02 -.861E+00 0.538E-01   -.287E-05 -.474E-04 -.495E-05
   0.145E+00 -.422E+02 0.538E+01   -.138E+00 0.430E+02 -.543E+01   -.796E-02 -.861E+00 0.538E-01   -.287E-05 -.474E-04 -.495E-05
   0.145E+00 -.422E+02 0.538E+01   -.138E+00 0.430E+02 -.543E+01   -.796E-02 -.861E+00 0.538E-01   -.287E-05 -.474E-04 -.495E-05
   0.145E+00 -.422E+02 0.538E+01   -.138E+00 0.430E+02 -.543E+01   -.796E-02 -.861E+00 0.538E-01   -.287E-05 -.474E-04 -.495E-05
   -.145E+00 0.422E+02 0.538E+01   0.138E+00 -.430E+02 -.543E+01   0.796E-02 0.861E+00 0.538E-01   0.287E-05 0.474E-04 -.495E-05
   -.145E+00 0.422E+02 0.538E+01   0.138E+00 -.430E+02 -.543E+01   0.796E-02 0.861E+00 0.538E-01   0.287E-05 0.474E-04 -.495E-05
   -.145E+00 0.422E+02 0.538E+01   0.138E+00 -.430E+02 -.543E+01   0.796E-02 0.861E+00 0.538E-01   0.287E-05 0.474E-04 -.495E-05
   -.145E+00 0.422E+02 0.538E+01   0.138E+00 -.430E+02 -.543E+01   0.796E-02 0.861E+00 0.538E-01   0.287E-05 0.474E-04 -.495E-05
   0.118E-06 -.916E-07 -.632E+01   0.168E-12 -.782E-13 0.606E+01   0.206E-23 0.000E+00 0.253E+00   -.231E-12 -.332E-12 0.456E-04
   0.118E-06 -.916E-07 -.632E+01   0.200E-12 -.284E-13 0.606E+01   0.365E-24 -.620E-24 0.253E+00   -.266E-12 -.138E-12 0.456E-04
   0.118E-06 -.916E-07 -.632E+01   0.224E-12 -.853E-13 0.606E+01   0.115E-23 -.155E-23 0.253E+00   -.780E-12 0.658E-12 0.456E-04
   0.118E-06 -.916E-07 -.632E+01   0.228E-12 -.853E-13 0.606E+01   -.220E-23 -.134E-23 0.253E+00   0.296E-12 0.692E-12 0.456E-04
   -.916E-07 0.118E-06 -.632E+01   -.114E-12 0.199E-12 0.606E+01   0.624E-24 -.171E-23 0.253E+00   -.240E-12 -.669E-13 0.456E-04
   -.916E-07 0.118E-06 -.632E+01   -.853E-13 0.199E-12 0.606E+01   -.352E-25 -.340E-23 0.253E+00   0.370E-12 -.275E-12 0.456E-04
   -.916E-07 0.118E-06 -.632E+01   -.114E-12 0.142E-12 0.606E+01   -.767E-24 0.252E-23 0.253E+00   0.157E-12 0.242E-12 0.456E-04
   -.916E-07 0.118E-06 -.632E+01   -.568E-13 0.142E-12 0.606E+01   -.115E-23 0.204E-23 0.253E+00   -.105E-12 0.530E-12 0.456E-04
   0.118E-06 -.916E-07 -.632E+01   0.149E-12 -.152E-12 0.606E+01   0.370E-24 0.186E-23 0.253E+00   0.155E-12 0.155E-11 0.456E-04
   0.118E-06 -.915E-07 -.632E+01   0.178E-12 -.209E-12 0.606E+01   0.549E-24 -.620E-24 0.253E+00   0.176E-12 0.126E-11 0.456E-04
   0.118E-06 -.916E-07 -.632E+01   0.171E-12 -.139E-12 0.606E+01   0.191E-24 0.186E-23 0.253E+00   -.173E-13 -.897E-12 0.456E-04
   0.118E-06 -.916E-07 -.632E+01   0.142E-12 -.203E-12 0.606E+01   0.308E-24 -.407E-24 0.253E+00   0.576E-12 -.798E-12 0.456E-04
   -.916E-07 0.118E-06 -.632E+01   -.108E-12 0.203E-13 0.606E+01   0.101E-23 0.620E-24 0.253E+00   0.728E-12 0.122E-11 0.456E-04
   -.916E-07 0.118E-06 -.632E+01   -.133E-12 0.203E-13 0.606E+01   0.133E-23 0.171E-23 0.253E+00   -.143E-11 0.160E-11 0.456E-04
   -.916E-07 0.118E-06 -.632E+01   -.150E-12 0.267E-13 0.606E+01   0.565E-24 -.414E-24 0.253E+00   0.474E-12 -.732E-12 0.456E-04
   -.916E-07 0.118E-06 -.632E+01   -.147E-12 -.302E-13 0.606E+01   0.857E-24 -.190E-23 0.253E+00   -.146E-11 -.911E-12 0.456E-04
   -.621E-07 0.106E-06 -.510E+01   0.311E-14 0.639E-13 0.480E+01   -.602E-25 -.414E-24 0.306E+00   -.406E-13 -.365E-12 0.907E-06
   -.621E-07 0.106E-06 -.510E+01   0.191E-13 0.711E-13 0.480E+01   0.224E-24 -.517E-25 0.306E+00   -.450E-12 -.148E-12 0.907E-06
   -.621E-07 0.106E-06 -.510E+01   0.351E-13 0.135E-12 0.480E+01   0.184E-25 0.570E-24 0.306E+00   0.114E-12 0.274E-12 0.907E-06
   -.621E-07 0.106E-06 -.510E+01   0.369E-13 0.128E-12 0.480E+01   0.829E-24 -.388E-24 0.306E+00   -.526E-12 0.652E-13 0.907E-06
   0.106E-06 -.621E-07 -.510E+01   0.426E-13 0.853E-13 0.480E+01   -.525E-24 -.517E-25 0.306E+00   0.159E-12 -.279E-12 0.907E-06
   0.106E-06 -.621E-07 -.510E+01   0.675E-13 0.284E-13 0.480E+01   -.133E-23 -.414E-24 0.306E+00   0.257E-12 -.341E-12 0.907E-06
   0.106E-06 -.621E-07 -.510E+01   0.639E-13 0.604E-13 0.480E+01   -.477E-24 -.620E-24 0.306E+00   0.400E-12 0.297E-12 0.907E-06
   0.106E-06 -.622E-07 -.510E+01   0.639E-13 0.604E-13 0.480E+01   0.312E-24 -.414E-24 0.306E+00   -.626E-13 0.328E-12 0.907E-06
   -.621E-07 0.106E-06 -.510E+01   -.462E-13 0.193E-13 0.480E+01   0.678E-25 -.413E-24 0.306E+00   0.162E-12 0.849E-12 0.907E-06
   -.621E-07 0.106E-06 -.510E+01   0.107E-13 -.446E-13 0.480E+01   -.652E-24 0.119E-23 0.306E+00   -.127E-12 0.123E-11 0.907E-06
   -.621E-07 0.106E-06 -.510E+01   -.142E-13 -.211E-13 0.480E+01   -.965E-25 0.109E-23 0.306E+00   0.164E-12 -.886E-12 0.907E-06
   -.621E-07 0.106E-06 -.510E+01   -.426E-13 0.113E-13 0.480E+01   0.137E-25 -.827E-24 0.306E+00   0.489E-13 -.132E-11 0.907E-06
   0.106E-06 -.621E-07 -.510E+01   -.753E-14 -.540E-13 0.480E+01   -.276E-24 0.517E-24 0.306E+00   -.753E-12 0.988E-12 0.907E-06
   0.106E-06 -.621E-07 -.510E+01   -.106E-13 -.537E-13 0.480E+01   -.517E-24 0.414E-24 0.306E+00   0.516E-12 0.128E-11 0.907E-06
   0.106E-06 -.621E-07 -.510E+01   0.172E-15 0.193E-13 0.480E+01   0.102E-23 0.207E-24 0.306E+00   -.986E-12 -.796E-12 0.907E-06
   0.106E-06 -.621E-07 -.510E+01   -.290E-14 -.870E-13 0.480E+01   -.348E-24 0.310E-24 0.306E+00   0.727E-12 -.113E-11 0.907E-06
   0.274E-06 0.274E-06 -.107E+02   -.232E-12 0.246E-12 -.639E-12   0.199E-14 -.333E-15 0.107E+02   0.284E-12 0.455E-11 0.585E-03

 POSITION                                       TOTAL-FORCE (eV/Angst)
      1.33764      1.32663      1.29185        -0.000643      0.001443      0.001101
      6.59361      1.37245      1.29185        -0.000643      0.001443      0.001101
      1.38347      6.58259      1.29185        -0.000643      0.001443      0.001101
      6.63943      6.62842      1.29185        -0.000643      0.001443      0.001101
      3.96415      3.97517      1.29185         0.000643     -0.001443      0.001101
      9.22012      4.02099      1.29185         0.000643     -0.001443      0.001101
      4.00998      9.23113      1.29185         0.000643     -0.001443      0.001101
      9.26594      9.27696      1.29185         0.000643     -0.001443      0.001101
      1.34718      3.94124      9.10399        -0.001443      0.000643      0.001101
      6.60315      3.98706      9.10399        -0.001443      0.000643      0.001101
      1.39301      9.19721      9.10399        -0.001443      0.000643      0.001101
      6.64898      9.24303      9.10399        -0.001443      0.000643      0.001101
      3.95461      1.36055      9.10399         0.001443     -0.000643      0.001101
      9.21058      1.40638      9.10399         0.001443     -0.000643      0.001101
      4.00044      6.61652      9.10399         0.001443     -0.000643      0.001101
      9.25640      6.66235      9.10399         0.001443     -0.000643      0.001101
      1.31326      1.32427      6.49995         0.000643     -0.001443      0.001101
      6.56922      1.37010      6.49995         0.000643     -0.001443      0.001101
      1.35908      6.58024      6.49995         0.000643     -0.001443      0.001101
      6.61505      6.62606      6.49995         0.000643     -0.001443      0.001101
      3.98854      3.97752      6.49995        -0.000643      0.001443      0.001101
      9.24450      4.02335      6.49995        -0.000643      0.001443      0.001101
      4.03436      9.23349      6.49995        -0.000643      0.001443      0.001101
      9.29033      9.27932      6.49995        -0.000643      0.001443      0.001101
      3.95225      1.33617      3.89590        -0.001443      0.000643      0.001101
      9.20822      1.38199      3.89590        -0.001443      0.000643      0.001101
      3.99808      6.59213      3.89590        -0.001443      0.000643      0.001101
      9.25405      6.63796      3.89590        -0.001443      0.000643      0.001101
      1.34954      3.96562      3.89590         0.001443     -0.000643      0.001101
      6.60551      4.01145      3.89590         0.001443     -0.000643      0.001101
      1.39537      9.22159      3.89590         0.001443     -0.000643      0.001101
      6.65133      9.26742      3.89590         0.001443     -0.000643      0.001101
      0.00000      0.00000      5.21690        -0.000000     -0.000000     -0.002900
      5.25597      0.04583      5.21690        -0.000000     -0.000000     -0.002900
      0.04583      5.25597      5.21690        -0.000000     -0.000000     -0.002900
      5.30179      5.30179      5.21690        -0.000000     -0.000000     -0.002900
      2.62798      0.02291      2.61285        -0.000000     -0.000000     -0.002900
      7.88395      0.06874      2.61285        -0.000000     -0.000000     -0.002900
      2.67381      5.27888      2.61285        -0.000000     -0.000000     -0.002900
      7.92978      5.32471      2.61285        -0.000000     -0.000000     -0.002900
      2.65090      2.65090      0.00880        -0.000000     -0.000000     -0.002900
      7.90686      2.69672      0.00880        -0.000000     -0.000000     -0.002900
      2.69672      7.90686      0.00880        -0.000000     -0.000000     -0.002900
      7.95269      7.95269      0.00880        -0.000000     -0.000000     -0.002900
      0.02291      2.62798      7.82095        -0.000000     -0.000000     -0.002900
      5.27888      2.67381      7.82095        -0.000000     -0.000000     -0.002900
      0.06874      7.88395      7.82095        -0.000000     -0.000000     -0.002900
      5.32471      7.92978      7.82095        -0.000000     -0.000000     -0.002900
      0.00000      0.00000      0.01155        -0.000000     -0.000000      0.000698
      5.25597      0.04583      0.01155        -0.000000     -0.000000      0.000698
      0.04583      5.25597      0.01155        -0.000000     -0.000000      0.000698
      5.30179      5.30179      0.01155        -0.000000     -0.000000      0.000698
      2.62798      0.02291      7.82370        -0.000000     -0.000000      0.000698
      7.88395      0.06874      7.82370        -0.000000     -0.000000      0.000698
      2.67381      5.27888      7.82370        -0.000000     -0.000000      0.000698
      7.92978      5.32471      7.82370        -0.000000     -0.000000      0.000698
      2.65090      2.65090      5.21965        -0.000000     -0.000000      0.000698
      7.90686      2.69672      5.21965        -0.000000     -0.000000      0.000698
      2.69672      7.90686      5.21965        -0.000000     -0.000000      0.000698
      7.95269      7.95269      5.21965        -0.000000     -0.000000      0.000698
      0.02291      2.62798      2.61560        -0.000000     -0.000000      0.000698
      5.27888      2.67381      2.61560        -0.000000     -0.000000      0.000698
      0.06874      7.88395      2.61560        -0.000000     -0.000000      0.000698
      5.32471      7.92978      2.61560        -0.000000     -0.000000      0.000698
    total drift:                                0.000000      0.000000     -0.078419

  FREE ENERGIE OF THE ION-ELECTRON SYSTEM (eV)
  free  energy   TOTEN  =      -328.11565530 eV

  energy  without entropy=     -328.11565530  energy(sigma->0) =     -328.11565530

 writing wavefunctions

 total charge

[...]

 magnetization (x)

# of ion       s       p       d       tot
    1       -0.000  -0.004   0.000  -0.004
    2       -0.000  -0.004   0.000  -0.004
    3       -0.000  -0.004   0.000  -0.004
    4       -0.000  -0.004   0.000  -0.004
    5       -0.000  -0.004   0.000  -0.004
    6       -0.000  -0.004   0.000  -0.004
    7       -0.000  -0.004   0.000  -0.004
    8       -0.000  -0.004   0.000  -0.004
    9        0.000   0.004   0.000   0.004
   10        0.000   0.004   0.000   0.004
   11        0.000   0.004   0.000   0.004
   12        0.000   0.004   0.000   0.004
   13        0.000   0.004   0.000   0.004
   14        0.000   0.004   0.000   0.004
   15        0.000   0.004   0.000   0.004
   16        0.000   0.004   0.000   0.004
   17       -0.000  -0.004   0.000  -0.004
   18       -0.000  -0.004   0.000  -0.004
   19       -0.000  -0.004   0.000  -0.004
   20       -0.000  -0.004   0.000  -0.004
   21       -0.000  -0.004   0.000  -0.004
   22       -0.000  -0.004   0.000  -0.004
   23       -0.000  -0.004   0.000  -0.004
   24       -0.000  -0.004   0.000  -0.004
   25        0.000   0.004   0.000   0.004
   26        0.000   0.004   0.000   0.004
   27        0.000   0.004   0.000   0.004
   28        0.000   0.004   0.000   0.004
   29        0.000   0.004   0.000   0.004
   30        0.000   0.004   0.000   0.004
   31        0.000   0.004   0.000   0.004
   32        0.000   0.004   0.000   0.004
   33        0.000   0.000  -0.001   0.000
   34        0.000   0.000  -0.001   0.000
   35        0.000   0.000  -0.001   0.000
   36        0.000   0.000  -0.001   0.000
   37       -0.000  -0.000   0.001  -0.000
   38       -0.000  -0.000   0.001  -0.000
   39       -0.000  -0.000   0.001  -0.000
   40       -0.000  -0.000   0.001  -0.000
   41        0.000   0.000  -0.001   0.000
   42        0.000   0.000  -0.001   0.000
   43        0.000   0.000  -0.001   0.000
   44        0.000   0.000  -0.001   0.000
   45       -0.000  -0.000   0.001  -0.000
   46       -0.000  -0.000   0.001  -0.000
   47       -0.000  -0.000   0.001  -0.000
   48       -0.000  -0.000   0.001  -0.000
   49        0.020   0.054   3.671   3.744
   50        0.020   0.054   3.671   3.744
   51        0.020   0.054   3.671   3.744
   52        0.020   0.054   3.671   3.744
   53       -0.020  -0.054  -3.671  -3.744
   54       -0.020  -0.054  -3.671  -3.744
   55       -0.020  -0.054  -3.671  -3.744
   56       -0.020  -0.054  -3.671  -3.744
   57        0.020   0.054   3.671   3.744
   58        0.020   0.054   3.671   3.744
   59        0.020   0.054   3.671   3.744
   60        0.020   0.054   3.671   3.744
   61       -0.020  -0.054  -3.671  -3.744
   62       -0.020  -0.054  -3.671  -3.744
   63       -0.020  -0.054  -3.671  -3.744
   64       -0.020  -0.054  -3.671  -3.744
tot         -0.000   0.001  -0.000  -0.000

 BZINTS: Fermi energy:  4.982390;688.000000 electrons
         Band energy:***********;  BLOECHL correction:  0.000000