 vasp.5.4.4.18Apr17-6-g9f103f2a35 (build Oct 30 2023 17:30:16) complex

 executed on             LinuxIFC date 2024.06.30  23:21:30

 INCAR:
 POTCAR:    PAW_PBE S 06Sep2000
 POTCAR:     PAW_PBE Cu_pv 06Sep2000
 POTCAR:     PAW_PBE Fe_pv 02Aug2007

   TITEL  = PAW_PBE S 06Sep2000
   POMASS =   32.066; ZVAL   =    6.000    mass and valenz
   ENMAX  =  258.689; ENMIN  =  194.016 eV

   TITEL  = PAW_PBE Cu_pv 06Sep2000
   POMASS =   63.546; ZVAL   =   17.000    mass and valenz
   ENMAX  =  368.648; ENMIN  =  276.486 eV

   TITEL  = PAW_PBE Fe_pv 02Aug2007
   POMASS =   55.847; ZVAL   =   14.000    mass and valenz
   ENMAX  =  293.238; ENMIN  =  219.928 eV

  PAW_PBE S 06Sep2000                   :
   PAW_PBE Cu_pv 06Sep2000              :
   PAW_PBE Fe_pv 02Aug2007              :

 POSCAR: Fe16 Cu16 S32
  positions in direct lattice
 exchange correlation table for  LEXCH =       14
   RHO(1)=    0.500       N(1)  =     2000
   RHO(2)=  100.500       N(2)  =     4000

 ion  position               nearest neighbor table
   1  0.126  0.123  0.125-  41 2.26  37 2.26  61 2.27  49 2.28
   2  0.626  0.123  0.125-  42 2.26  38 2.26  62 2.27  50 2.28
   3  0.126  0.623  0.125-  43 2.26  39 2.26  63 2.27  51 2.28
   4  0.626  0.623  0.125-  44 2.26  40 2.26  64 2.27  52 2.28
   5  0.374  0.373  0.125-  39 2.26  41 2.26  52 2.27  62 2.28
   6  0.874  0.373  0.125-  40 2.26  42 2.26  51 2.27  61 2.28
   7  0.374  0.873  0.125-  37 2.26  43 2.26  50 2.27  64 2.28
   8  0.874  0.873  0.125-  38 2.26  44 2.26  49 2.27  63 2.28
   9  0.125  0.373  0.875-  41 2.26  45 2.26  51 2.27  55 2.27
  10  0.625  0.373  0.875-  42 2.26  46 2.26  52 2.27  56 2.27
  11  0.125  0.873  0.875-  43 2.26  47 2.26  49 2.27  53 2.27
  12  0.625  0.873  0.875-  44 2.26  48 2.26  50 2.27  54 2.27
  13  0.375  0.125  0.875-  41 2.26  46 2.26  50 2.28  53 2.28
  14  0.875  0.125  0.875-  42 2.26  45 2.26  49 2.28  54 2.28
  15  0.375  0.625  0.875-  43 2.26  48 2.26  52 2.28  55 2.28
  16  0.875  0.625  0.875-  44 2.26  47 2.26  51 2.28  56 2.28
  17  0.124  0.123  0.625-  45 2.26  33 2.26  57 2.27  53 2.28
  18  0.624  0.123  0.625-  46 2.26  34 2.26  58 2.27  54 2.28
  19  0.124  0.623  0.625-  47 2.26  35 2.26  59 2.27  55 2.28
  20  0.624  0.623  0.625-  48 2.26  36 2.26  60 2.27  56 2.28
  21  0.376  0.373  0.625-  36 2.26  46 2.26  55 2.27  57 2.28
  22  0.876  0.373  0.625-  35 2.26  45 2.26  56 2.27  58 2.28
  23  0.376  0.873  0.625-  34 2.26  48 2.26  53 2.27  59 2.28
  24  0.876  0.873  0.625-  33 2.26  47 2.26  54 2.27  60 2.28
  25  0.375  0.123  0.375-  34 2.26  37 2.26  57 2.27  62 2.27
  26  0.875  0.123  0.375-  33 2.26  38 2.26  58 2.27  61 2.27
  27  0.375  0.623  0.375-  36 2.26  39 2.26  59 2.27  64 2.27
  28  0.875  0.623  0.375-  35 2.26  40 2.26  60 2.27  63 2.27
  29  0.125  0.375  0.375-  35 2.26  39 2.26  57 2.28  61 2.28
  30  0.625  0.375  0.375-  36 2.26  40 2.26  58 2.28  62 2.28
  31  0.125  0.875  0.375-  33 2.26  37 2.26  59 2.28  63 2.28
  32  0.625  0.875  0.375-  34 2.26  38 2.26  60 2.28  64 2.28
  33  0.999  0.001  0.500-  24 2.26  31 2.26  26 2.26  17 2.26
  34  0.499  0.001  0.500-  23 2.26  32 2.26  25 2.26  18 2.26
  35  0.999  0.501  0.500-  22 2.26  29 2.26  28 2.26  19 2.26
  36  0.499  0.501  0.500-  21 2.26  30 2.26  27 2.26  20 2.26
  37  0.251  0.001  0.250-   7 2.26  31 2.26  25 2.26   1 2.26
  38  0.751  0.001  0.250-   8 2.26  32 2.26  26 2.26   2 2.26
  39  0.251  0.501  0.250-   5 2.26  29 2.26  27 2.26   3 2.26
  40  0.751  0.501  0.250-   6 2.26  30 2.26  28 2.26   4 2.26
  41  0.249  0.251  1.000-   1 2.26  13 2.26   9 2.26   5 2.26
  42  0.749  0.251  1.000-   2 2.26  14 2.26  10 2.26   6 2.26
  43  0.249  0.751  1.000-   3 2.26  15 2.26  11 2.26   7 2.26
  44  0.749  0.751  1.000-   4 2.26  16 2.26  12 2.26   8 2.26
  45  0.001  0.251  0.750-  17 2.26  14 2.26   9 2.26  22 2.26
  46  0.501  0.251  0.750-  18 2.26  13 2.26  10 2.26  21 2.26
  47  0.001  0.751  0.750-  19 2.26  16 2.26  11 2.26  24 2.26
  48  0.501  0.751  0.750-  20 2.26  15 2.26  12 2.26  23 2.26
  49  1.000  0.001  0.000-   8 2.27  11 2.27  14 2.28   1 2.28
  50  0.500  0.001  0.000-   7 2.27  12 2.27  13 2.28   2 2.28
  51  1.000  0.501  0.000-   6 2.27   9 2.27  16 2.28   3 2.28
  52  0.500  0.501  0.000-   5 2.27  10 2.27  15 2.28   4 2.28
  53  0.250  0.001  0.750-  23 2.27  11 2.27  13 2.28  17 2.28
  54  0.750  0.001  0.750-  24 2.27  12 2.27  14 2.28  18 2.28
  55  0.250  0.501  0.750-  21 2.27   9 2.27  15 2.28  19 2.28
  56  0.750  0.501  0.750-  22 2.27  10 2.27  16 2.28  20 2.28
  57  0.250  0.251  0.500-  17 2.27  25 2.27  29 2.28  21 2.28
  58  0.750  0.251  0.500-  18 2.27  26 2.27  30 2.28  22 2.28
  59  0.250  0.751  0.500-  19 2.27  27 2.27  31 2.28  23 2.28
  60  0.750  0.751  0.500-  20 2.27  28 2.27  32 2.28  24 2.28
  61  0.000  0.251  0.250-   1 2.27  26 2.27  29 2.28   6 2.28
  62  0.500  0.251  0.250-   2 2.27  25 2.27  30 2.28   5 2.28
  63  0.000  0.751  0.250-   3 2.27  28 2.27  31 2.28   8 2.28
  64  0.500  0.751  0.250-   4 2.27  27 2.27  32 2.28   7 2.28

  LATTYP: Found a simple monoclinic cell.
 ALAT       =    14.9887910590
 B/A-ratio  =     0.7016820075
 C/A-ratio  =     1.5724396940
 COS(beta)  =    -0.9508198308

  Lattice vectors:

 A1 = ( -10.6503930000,   0.0000000000, -10.5467050000)
 A2 = (   0.0000000000, -10.5173650000,   0.0000000000)
 A3 = (  10.7866550000,   0.0000000000,  20.9557730000)

Analysis of symmetry for initial positions (statically):
 Subroutine PRICEL returns following result:

  LATTYP: Found a base centered monoclinic cell.
 ALAT       =    11.5387775873
 B/A-ratio  =     0.4557400002
 C/A-ratio  =     0.9021718086
 COS(beta)  =    -0.8100833506

[...]

   8 primitive cells build up your supercell.

 Routine SETGRP: Setting up the symmetry group for a
 simple monoclinic supercell.

 Subroutine GETGRP returns: Found  2 space group operations
 (whereof  1 operations were pure point group operations)
 out of a pool of  4 trial point group operations.

The static configuration has the point symmetry C_1 .
 The point group associated with its full space group is C_2 .

Analysis of symmetry for dynamics (positions and initial velocities):
 Subroutine PRICEL returns following result:

[...]

The dynamic configuration has the point symmetry C_1 .
 The point group associated with its full space group is C_2 .

Analysis of structural, dynamic, and magnetic symmetry:
 Subroutine PRICEL returns following result:

  LATTYP: Found a base centered monoclinic cell.
 ALAT       =    11.5387775873
 B/A-ratio  =     0.4557400002
 C/A-ratio  =     0.9021718086
 COS(beta)  =    -0.8100833506

  Lattice vectors:

 A1 = (  -2.5604017500,  -2.6293307326,   5.1701247500)
 A2 = (  -2.5604017500,   2.6293517674,   5.1701247500)
 A3 = (  -0.1362620000,   0.0000000000, -10.4090680000)

   8 primitive cells build up your supercell.

 Routine SETGRP: Setting up the symmetry group for a
 simple monoclinic supercell.

 Subroutine GETGRP returns: Found  2 space group operations
 (whereof  1 operations were pure point group operations)
 out of a pool of  4 trial point group operations.

The magnetic configuration has the point symmetry C_1 .
 The point group associated with its full space group is C_2 .

 Subroutine INISYM returns: Found  2 space group operations
 (whereof  1 operations are pure point group operations),
 and found     8 'primitive' translations

 KPOINTS: Automatic mesh

Automatic generation of k-mesh.
Space group operators:
 irot       det(A)        alpha          n_x          n_y          n_z        tau_x        tau_y        tau_z
    1     1.000000     0.000000     1.000000     0.000000     0.000000     0.000000     0.000000     0.000000
    2     1.000000   180.000000     0.000000     1.000000     0.000000    -0.250000     0.000000    -0.250000

 Subroutine IBZKPT returns following result:

 Found      1 irreducible k-points:

 Following reciprocal coordinates:
            Coordinates               Weight
  0.000000  0.000000  0.000000      1.000000

 Following cartesian coordinates:
            Coordinates               Weight
  0.000000  0.000000  0.000000      1.000000

 Subroutine IBZKPT_HF returns following result:

 Found      1 k-points in 1st BZ
 the following      1 k-points will be used (e.g. in the exchange kernel)
 Following reciprocal coordinates:   # in IRBZ
  0.000000  0.000000  0.000000    1.00000000   1 t-inv F

 SYSTEM =  CuFeS2
 POSCAR =  Fe16 Cu16 S32

 Startparameter for this run:
   NWRITE =      2    write-flag & timer
   PREC   = accura    normal or accurate (medium, high low for compatibility)
   ISTART =      1    job   : 0-new  1-cont  2-samecut
   ICHARG =      1    charge: 1-file 2-atom 10-const
   ISPIN  =      2    spin polarized calculation?
   LNONCOLLINEAR =      F non collinear calculations
   LSORBIT =      F    spin-orbit coupling
   INIWAV =      1    electr: 0-lowe 1-rand  2-diag
   LASPH  =      F    aspherical Exc in radial PAW
   METAGGA=      F    non-selfconsistent MetaGGA calc.

 Electronic Relaxation 1
   ENCUT  =  700.0 eV  51.45 Ry    7.17 a.u.  22.68 22.69 22.46*2*pi/ulx,y,z
   ENINI  =  700.0     initial cutoff
   ENAUG  =  758.2 eV  augmentation charge cutoff
   NELM   =    500;   NELMIN=  2; NELMDL=  0     # of ELM steps
   EDIFF  = 0.1E-07   stopping-criterion for ELM
   LREAL  =      F    real-space projection
   NLSPLINE    = F    spline interpolate recip. space projectors
   LCOMPAT=      F    compatible to vasp.4.4
   GGA_COMPAT  = T    GGA compatible to vasp.4.4-vasp.4.6
   LMAXPAW     = -100 max onsite density
   LMAXMIX     =    4 max onsite mixed and CHGCAR
   VOSKOWN=      0    Vosko Wilk Nusair interpolation
   ROPT   =    0.00000   0.00000   0.00000
 Ionic relaxation
   EDIFFG = -.1E-04   stopping-criterion for IOM
   NSW    =      0    number of steps for IOM
   NBLOCK =      1;   KBLOCK =      1    inner block; outer block
   IBRION =     -1    ionic relax: 0-MD 1-quasi-New 2-CG
   NFREE  =      0    steps in history (QN), initial steepest desc. (CG)
   ISIF   =      2    stress and relaxation
   IWAVPR =     10    prediction:  0-non 1-charg 2-wave 3-comb
   ISYM   =      2    0-nonsym 1-usesym 2-fastsym
   LCORR  =      T    Harris-Foulkes like correction to forces

   POTIM  = 0.5000    time-step for ionic-motion
   TEIN   =    0.0    initial temperature
   TEBEG  =    0.0;   TEEND  =   0.0 temperature during run
   SMASS  =  -3.00    Nose mass-parameter (am)
   estimated Nose-frequenzy (Omega)   =  0.10E-29 period in steps =****** mass=  -0.253E-26a.u.
   SCALEE = 1.0000    scale energy and forces
   NPACO  =    256;   APACO  = 16.0  distance and # of slots for P.C.
   PSTRESS=    0.0 pullay stress

  Mass of Ions in am
   POMASS =  32.07 63.55 55.85
  Ionic Valenz
   ZVAL   =   6.00 17.00 14.00
  Atomic Wigner-Seitz radii
  virtual crystal weights
   VCA    =   1.00  1.00  1.00
   NELECT =     688.0000    total number of electrons
   NUPDOWN=      -1.0000    fix difference up-down

 DOS related values:
   EMIN   =  10.00;   EMAX   =-10.00  energy-range for DOS
   EFERMI =   0.00
   ISMEAR =     0;   SIGMA  =   0.03  broadening in eV -4-tet -1-fermi 0-gaus

[...]
   0.420E+02 0.913E+01 0.840E+00   -.429E+02 -.921E+01 -.844E+00   0.927E+00 0.735E-01 0.492E-02   0.220E-05 0.621E-04 -.212E-04
   -.420E+02 0.913E+01 -.840E+00   0.429E+02 -.921E+01 0.844E+00   -.927E+00 0.735E-01 -.492E-02   -.219E-05 0.621E-04 0.205E-04
   -.420E+02 0.913E+01 -.840E+00   0.429E+02 -.921E+01 0.844E+00   -.927E+00 0.735E-01 -.492E-02   -.219E-05 0.621E-04 0.205E-04
   -.420E+02 0.913E+01 -.840E+00   0.429E+02 -.921E+01 0.844E+00   -.927E+00 0.735E-01 -.492E-02   -.219E-05 0.621E-04 0.205E-04
   -.420E+02 0.913E+01 -.840E+00   0.429E+02 -.921E+01 0.844E+00   -.927E+00 0.735E-01 -.492E-02   -.219E-05 0.621E-04 0.205E-04
   0.551E-07 -.352E+02 0.906E-07   -.702E-13 0.360E+02 -.266E-14   -.131E-25 -.858E+00 0.129E-25   0.322E-08 0.477E-04 -.396E-10
   0.551E-07 -.352E+02 0.906E-07   -.506E-13 0.360E+02 0.266E-13   0.114E-25 -.858E+00 0.626E-26   -.322E-08 0.477E-04 0.449E-10
   0.551E-07 -.352E+02 0.906E-07   -.533E-13 0.360E+02 -.533E-14   -.264E-25 -.858E+00 -.162E-26   0.322E-08 0.477E-04 -.396E-10
   0.551E-07 -.352E+02 0.906E-07   -.497E-13 0.360E+02 0.213E-13   0.571E-26 -.858E+00 0.162E-25   -.322E-08 0.477E-04 0.449E-10
   -.471E-09 0.491E+02 0.923E-08   0.115E-13 -.501E+02 0.231E-13   -.385E-25 0.100E+01 -.646E-26   0.980E-10 0.412E-04 0.845E-10
   -.470E-09 0.491E+02 0.922E-08   -.115E-13 -.501E+02 0.977E-14   -.148E-25 0.100E+01 0.646E-26   -.983E-10 0.412E-04 -.795E-10
   -.471E-09 0.491E+02 0.923E-08   0.355E-14 -.501E+02 0.213E-13   0.536E-25 0.100E+01 0.323E-26   0.976E-10 0.412E-04 0.849E-10
   -.470E-09 0.491E+02 0.923E-08   -.355E-14 -.501E+02 0.231E-13   0.545E-26 0.100E+01 0.186E-25   -.978E-10 0.412E-04 -.793E-10
   -.420E+02 0.913E+01 -.840E+00   0.429E+02 -.921E+01 0.844E+00   -.927E+00 0.735E-01 -.492E-02   -.220E-05 0.621E-04 0.212E-04
   -.420E+02 0.913E+01 -.840E+00   0.429E+02 -.921E+01 0.844E+00   -.927E+00 0.735E-01 -.492E-02   -.220E-05 0.621E-04 0.212E-04
   -.420E+02 0.913E+01 -.840E+00   0.429E+02 -.921E+01 0.844E+00   -.927E+00 0.735E-01 -.492E-02   -.220E-05 0.621E-04 0.212E-04
   -.420E+02 0.913E+01 -.840E+00   0.429E+02 -.921E+01 0.844E+00   -.927E+00 0.735E-01 -.492E-02   -.220E-05 0.621E-04 0.212E-04
   0.420E+02 0.913E+01 0.840E+00   -.429E+02 -.921E+01 -.844E+00   0.927E+00 0.735E-01 0.492E-02   0.219E-05 0.621E-04 -.205E-04
   0.420E+02 0.913E+01 0.840E+00   -.429E+02 -.921E+01 -.844E+00   0.927E+00 0.735E-01 0.492E-02   0.219E-05 0.621E-04 -.205E-04
   0.420E+02 0.913E+01 0.840E+00   -.429E+02 -.921E+01 -.844E+00   0.927E+00 0.735E-01 0.492E-02   0.219E-05 0.621E-04 -.205E-04
   0.420E+02 0.913E+01 0.840E+00   -.429E+02 -.921E+01 -.844E+00   0.927E+00 0.735E-01 0.492E-02   0.219E-05 0.621E-04 -.205E-04
   0.551E-07 -.352E+02 0.906E-07   -.139E-12 0.360E+02 0.320E-13   -.808E-26 -.858E+00 0.113E-25   0.518E-10 0.478E-04 -.864E-10
   0.551E-07 -.352E+02 0.906E-07   -.155E-12 0.360E+02 -.204E-13   0.182E-26 -.858E+00 0.000E+00   -.517E-10 0.478E-04 0.815E-10
   0.551E-07 -.352E+02 0.906E-07   -.114E-12 0.360E+02 0.142E-13   -.216E-25 -.858E+00 0.646E-26   0.512E-10 0.477E-04 -.868E-10
   0.551E-07 -.352E+02 0.906E-07   -.128E-12 0.360E+02 -.107E-13   -.749E-25 -.858E+00 -.646E-26   -.510E-10 0.477E-04 0.812E-10
   -.486E-09 0.491E+02 0.951E-08   0.338E-13 -.501E+02 -.187E-13   0.515E-26 0.100E+01 0.000E+00   0.322E-08 0.412E-04 -.443E-10
   -.487E-09 0.491E+02 0.951E-08   0.142E-13 -.501E+02 -.355E-13   -.411E-25 0.100E+01 0.129E-25   -.322E-08 0.412E-04 0.392E-10
   -.486E-09 0.491E+02 0.951E-08   0.355E-13 -.501E+02 -.675E-13   -.767E-25 0.100E+01 0.172E-25   0.322E-08 0.412E-04 -.445E-10
   -.487E-09 0.491E+02 0.951E-08   0.284E-13 -.501E+02 -.853E-13   0.131E-26 0.100E+01 0.000E+00   -.322E-08 0.412E-04 0.393E-10
   0.189E+01 -.857E+01 0.302E+00   -.186E+01 0.823E+01 -.308E+00   -.236E-01 0.351E+00 0.456E-02   -.272E-03 0.338E-03 -.123E-03
   0.189E+01 -.857E+01 0.302E+00   -.186E+01 0.823E+01 -.308E+00   -.236E-01 0.351E+00 0.456E-02   -.272E-03 0.338E-03 -.123E-03
   0.189E+01 -.857E+01 0.302E+00   -.186E+01 0.823E+01 -.308E+00   -.236E-01 0.351E+00 0.456E-02   -.272E-03 0.338E-03 -.123E-03
   0.189E+01 -.857E+01 0.302E+00   -.186E+01 0.823E+01 -.308E+00   -.236E-01 0.351E+00 0.456E-02   -.272E-03 0.338E-03 -.123E-03
   -.189E+01 -.857E+01 -.302E+00   0.186E+01 0.823E+01 0.308E+00   0.236E-01 0.351E+00 -.456E-02   0.272E-03 0.338E-03 0.123E-03
   -.189E+01 -.857E+01 -.302E+00   0.186E+01 0.823E+01 0.308E+00   0.236E-01 0.351E+00 -.456E-02   0.272E-03 0.338E-03 0.123E-03
   -.189E+01 -.857E+01 -.302E+00   0.186E+01 0.823E+01 0.308E+00   0.236E-01 0.351E+00 -.456E-02   0.272E-03 0.338E-03 0.123E-03
   -.189E+01 -.857E+01 -.302E+00   0.186E+01 0.823E+01 0.308E+00   0.236E-01 0.351E+00 -.456E-02   0.272E-03 0.338E-03 0.123E-03
   0.189E+01 -.858E+01 0.302E+00   -.187E+01 0.823E+01 -.307E+00   -.236E-01 0.351E+00 0.456E-02   -.272E-03 0.338E-03 -.125E-03
   0.189E+01 -.858E+01 0.302E+00   -.187E+01 0.823E+01 -.307E+00   -.236E-01 0.351E+00 0.456E-02   -.272E-03 0.338E-03 -.125E-03
   0.189E+01 -.858E+01 0.302E+00   -.187E+01 0.823E+01 -.307E+00   -.236E-01 0.351E+00 0.456E-02   -.272E-03 0.338E-03 -.125E-03
   0.189E+01 -.858E+01 0.302E+00   -.187E+01 0.823E+01 -.307E+00   -.236E-01 0.351E+00 0.456E-02   -.272E-03 0.338E-03 -.125E-03
   -.189E+01 -.858E+01 -.302E+00   0.187E+01 0.823E+01 0.307E+00   0.236E-01 0.351E+00 -.456E-02   0.272E-03 0.338E-03 0.125E-03
   -.189E+01 -.858E+01 -.302E+00   0.187E+01 0.823E+01 0.307E+00   0.236E-01 0.351E+00 -.456E-02   0.272E-03 0.338E-03 0.125E-03
   -.189E+01 -.858E+01 -.302E+00   0.187E+01 0.823E+01 0.307E+00   0.236E-01 0.351E+00 -.456E-02   0.272E-03 0.338E-03 0.125E-03
   -.189E+01 -.858E+01 -.302E+00   0.187E+01 0.823E+01 0.307E+00   0.236E-01 0.351E+00 -.456E-02   0.272E-03 0.338E-03 0.125E-03
   -.225E+01 -.848E+01 0.367E+00   0.220E+01 0.803E+01 -.377E+00   0.470E-01 0.461E+00 0.695E-02   0.737E-04 0.648E-05 -.552E-04
   -.225E+01 -.848E+01 0.367E+00   0.220E+01 0.803E+01 -.377E+00   0.470E-01 0.461E+00 0.695E-02   0.737E-04 0.648E-05 -.552E-04
   -.225E+01 -.848E+01 0.367E+00   0.220E+01 0.803E+01 -.377E+00   0.470E-01 0.461E+00 0.695E-02   0.737E-04 0.647E-05 -.552E-04
   -.225E+01 -.848E+01 0.367E+00   0.220E+01 0.803E+01 -.377E+00   0.470E-01 0.461E+00 0.695E-02   0.737E-04 0.647E-05 -.552E-04
   0.225E+01 -.848E+01 -.367E+00   -.220E+01 0.803E+01 0.377E+00   -.470E-01 0.461E+00 -.695E-02   -.737E-04 0.648E-05 0.552E-04
   0.225E+01 -.848E+01 -.367E+00   -.220E+01 0.803E+01 0.377E+00   -.470E-01 0.461E+00 -.695E-02   -.737E-04 0.648E-05 0.552E-04
   0.225E+01 -.848E+01 -.367E+00   -.220E+01 0.803E+01 0.377E+00   -.470E-01 0.461E+00 -.695E-02   -.737E-04 0.647E-05 0.552E-04
   0.225E+01 -.848E+01 -.367E+00   -.220E+01 0.803E+01 0.377E+00   -.470E-01 0.461E+00 -.695E-02   -.737E-04 0.647E-05 0.552E-04
   -.225E+01 -.848E+01 0.367E+00   0.220E+01 0.803E+01 -.376E+00   0.470E-01 0.461E+00 0.695E-02   0.737E-04 0.648E-05 -.540E-04
   -.225E+01 -.848E+01 0.367E+00   0.220E+01 0.803E+01 -.376E+00   0.470E-01 0.461E+00 0.695E-02   0.737E-04 0.648E-05 -.540E-04
   -.225E+01 -.848E+01 0.367E+00   0.220E+01 0.803E+01 -.376E+00   0.470E-01 0.461E+00 0.695E-02   0.737E-04 0.647E-05 -.540E-04
   -.225E+01 -.848E+01 0.367E+00   0.220E+01 0.803E+01 -.376E+00   0.470E-01 0.461E+00 0.695E-02   0.737E-04 0.647E-05 -.540E-04
   0.225E+01 -.848E+01 -.367E+00   -.220E+01 0.803E+01 0.376E+00   -.470E-01 0.461E+00 -.695E-02   -.737E-04 0.648E-05 0.540E-04
   0.225E+01 -.848E+01 -.367E+00   -.220E+01 0.803E+01 0.376E+00   -.470E-01 0.461E+00 -.695E-02   -.737E-04 0.648E-05 0.540E-04
   0.225E+01 -.848E+01 -.367E+00   -.220E+01 0.803E+01 0.376E+00   -.470E-01 0.461E+00 -.695E-02   -.737E-04 0.647E-05 0.540E-04
   0.225E+01 -.848E+01 -.367E+00   -.220E+01 0.803E+01 0.376E+00   -.470E-01 0.461E+00 -.695E-02   -.737E-04 0.647E-05 0.540E-04
   -.310E-06 -.154E+02 0.331E-03   -.198E-12 0.103E-12 -.123E-11   -.282E-14 0.153E+02 0.121E-16   -.509E-11 0.722E-02 0.133E-12

 POSITION                                       TOTAL-FORCE (eV/Angst)
      1.34380      1.29740      1.32118         0.001094     -0.008223      0.000793
      6.60087      1.29740      1.38999         0.001094     -0.008223      0.000793
      1.34380      6.55608      1.32118         0.001094     -0.008223      0.000793
      6.60087      6.55608      1.38999         0.001094     -0.008223      0.000793
      3.94733      3.92674      1.34991        -0.001094     -0.008223     -0.000793
      9.20439      3.92674      1.41873        -0.001094     -0.008223     -0.000793
      3.94733      9.18542      1.34991        -0.001094     -0.008223     -0.000793
      9.20439      9.18542      1.41873        -0.001094     -0.008223     -0.000793
      1.43350      3.92020      9.12514        -0.000000     -0.009719      0.000000
      6.69056      3.92020      9.19396        -0.000000     -0.009719      0.000000
      1.43350      9.17888      9.12514        -0.000000     -0.009719      0.000000
      6.69056      9.17888      9.19396        -0.000000     -0.009719      0.000000
      4.06203      1.31432      9.15955        -0.000000     -0.006749      0.000000
      9.31909      1.31432      9.22837        -0.000000     -0.006749      0.000000
      4.06203      6.57301      9.15955        -0.000000     -0.006749      0.000000
      9.31909      6.57301      9.22837        -0.000000     -0.006749      0.000000
      1.38693      1.29740      6.52003        -0.001094     -0.008223     -0.000793
      6.64399      1.29740      6.58885        -0.001094     -0.008223     -0.000793
      1.38693      6.55608      6.52003        -0.001094     -0.008223     -0.000793
      6.64399      6.55608      6.58885        -0.001094     -0.008223     -0.000793
      4.04047      3.92674      6.56012         0.001094     -0.008223      0.000793
      9.29753      3.92674      6.62894         0.001094     -0.008223      0.000793
      4.04047      9.18542      6.56012         0.001094     -0.008223      0.000793
      9.29753      9.18542      6.62894         0.001094     -0.008223      0.000793
      3.99390      1.29086      3.95501        -0.000000     -0.009719      0.000000
      9.25096      1.29086      4.02383        -0.000000     -0.009719      0.000000
      3.99390      6.54954      3.95501        -0.000000     -0.009719      0.000000
      9.25096      6.54954      4.02383        -0.000000     -0.009719      0.000000
      1.36536      3.94365      3.92061        -0.000000     -0.006749      0.000000
      6.62243      3.94365      3.98942        -0.000000     -0.006749      0.000000
      1.36536      9.20234      3.92061        -0.000000     -0.006749      0.000000
      6.62243      9.20234      3.98942        -0.000000     -0.006749      0.000000
     10.57697      0.01504      5.34206        -0.001676      0.008553     -0.001008
      5.31991      0.01504      5.27324        -0.001676      0.008553     -0.001008
     10.57697      5.27372      5.34206        -0.001676      0.008553     -0.001008
      5.31991      5.27372      5.27324        -0.001676      0.008553     -0.001008
      2.66789      0.01504      2.63679         0.001676      0.008553      0.001008
      7.92495      0.01504      2.70561         0.001676      0.008553      0.001008
      2.66789      5.27372      2.63679         0.001676      0.008553      0.001008
      7.92495      5.27372      2.70561         0.001676      0.008553      0.001008
      2.75951      2.64439     10.44337        -0.001676      0.008553     -0.001008
      8.01657      2.64439     10.51218        -0.001676      0.008553     -0.001008
      2.75951      7.90307     10.44337        -0.001676      0.008553     -0.001008
      8.01657      7.90307     10.51218        -0.001676      0.008553     -0.001008
      0.10749      2.64439      7.80691         0.001676      0.008553      0.001008
      5.36455      2.64439      7.87573         0.001676      0.008553      0.001008
      0.10749      7.90307      7.80691         0.001676      0.008553      0.001008
      5.36455      7.90307      7.87573         0.001676      0.008553      0.001008
     10.51141      0.01430      0.13837        -0.002536      0.007904     -0.002037
      5.25434      0.01430      0.06955        -0.002536      0.007904     -0.002037
     10.51141      5.27299      0.13837        -0.002536      0.007904     -0.002037
      5.25434      5.27299      0.06955        -0.002536      0.007904     -0.002037
      2.73345      0.01430      7.84048         0.002536      0.007904      0.002037
      7.99052      0.01430      7.90929         0.002536      0.007904      0.002037
      2.73345      5.27299      7.84048         0.002536      0.007904      0.002037
      7.99052      5.27299      7.90929         0.002536      0.007904      0.002037
      2.69394      2.64364      5.23968        -0.002536      0.007904     -0.002037
      7.95101      2.64364      5.30850        -0.002536      0.007904     -0.002037
      2.69394      7.90233      5.23968        -0.002536      0.007904     -0.002037
      7.95101      7.90233      5.30850        -0.002536      0.007904     -0.002037
      0.03679      2.64364      2.60153         0.002536      0.007904      0.002037
      5.29385      2.64364      2.67035         0.002536      0.007904      0.002037
      0.03679      7.90233      2.60153         0.002536      0.007904      0.002037
      5.29385      7.90233      2.67035         0.002536      0.007904      0.002037
    total drift:                               -0.000000     -0.027490      0.000331

  FREE ENERGIE OF THE ION-ELECTRON SYSTEM (eV)
  free  energy   TOTEN  =      -327.34979421 eV

  energy  without entropy=     -327.34979421  energy(sigma->0) =     -327.34979421

 writing wavefunctions

 total charge

[...]

 magnetization (x)

# of ion       s       p       d       tot
    1       -0.000  -0.007   0.000  -0.007
    2       -0.000  -0.007   0.000  -0.007
    3       -0.000  -0.007   0.000  -0.007
    4       -0.000  -0.007   0.000  -0.007
    5        0.000   0.007   0.000   0.007
    6        0.000   0.007   0.000   0.007
    7        0.000   0.007   0.000   0.007
    8        0.000   0.007   0.000   0.007
    9       -0.000   0.000   0.000   0.000
   10        0.000  -0.000   0.000  -0.000
   11       -0.000   0.000   0.000   0.000
   12        0.000  -0.000   0.000  -0.000
   13        0.000  -0.000   0.000  -0.000
   14       -0.000   0.000   0.000   0.000
   15        0.000  -0.000   0.000  -0.000
   16       -0.000   0.000   0.000   0.000
   17        0.000   0.007   0.000   0.007
   18        0.000   0.007   0.000   0.007
   19        0.000   0.007   0.000   0.007
   20        0.000   0.007   0.000   0.007
   21       -0.000  -0.007   0.000  -0.007
   22       -0.000  -0.007   0.000  -0.007
   23       -0.000  -0.007   0.000  -0.007
   24       -0.000  -0.007   0.000  -0.007
   25       -0.000   0.000   0.000   0.000
   26        0.000  -0.000   0.000  -0.000
   27       -0.000   0.000   0.000   0.000
   28        0.000  -0.000   0.000  -0.000
   29        0.000  -0.000   0.000  -0.000
   30       -0.000   0.000   0.000   0.000
   31        0.000  -0.000   0.000  -0.000
   32       -0.000   0.000   0.000   0.000
   33        0.001  -0.000  -0.001  -0.001
   34        0.001  -0.000  -0.001  -0.001
   35        0.001  -0.000  -0.001  -0.001
   36        0.001  -0.000  -0.001  -0.001
   37       -0.001   0.000   0.001   0.001
   38       -0.001   0.000   0.001   0.001
   39       -0.001   0.000   0.001   0.001
   40       -0.001   0.000   0.001   0.001
   41        0.001  -0.000  -0.001  -0.001
   42        0.001  -0.000  -0.001  -0.001
   43        0.001  -0.000  -0.001  -0.001
   44        0.001  -0.000  -0.001  -0.001
   45       -0.001   0.000   0.001   0.001
   46       -0.001   0.000   0.001   0.001
   47       -0.001   0.000   0.001   0.001
   48       -0.001   0.000   0.001   0.001
   49        0.020   0.056   3.671   3.747
   50        0.020   0.056   3.671   3.747
   51        0.020   0.056   3.671   3.747
   52        0.020   0.056   3.671   3.747
   53       -0.020  -0.056  -3.671  -3.747
   54       -0.020  -0.056  -3.671  -3.747
   55       -0.020  -0.056  -3.671  -3.747
   56       -0.020  -0.056  -3.671  -3.747
   57        0.020   0.056   3.671   3.747
   58        0.020   0.056   3.671   3.747
   59        0.020   0.056   3.671   3.747
   60        0.020   0.056   3.671   3.747
   61       -0.020  -0.056  -3.671  -3.747
   62       -0.020  -0.056  -3.671  -3.747
   63       -0.020  -0.056  -3.671  -3.747
   64       -0.020  -0.056  -3.671  -3.747
tot          0.000  -0.000   0.000   0.000