 vasp.5.4.4.18Apr17-6-g9f103f2a35 (build Oct 30 2023 17:30:16) complex

 executed on             LinuxIFC date 2024.04.02  20:06:54

 INCAR:
 POTCAR:    PAW_PBE S 06Sep2000
 POTCAR:     PAW_PBE Cu_pv 06Sep2000
 POTCAR:     PAW_PBE Fe_pv 02Aug2007

   TITEL  = PAW_PBE S 06Sep2000
   POMASS =   32.066; ZVAL   =    6.000    mass and valenz
   ENMAX  =  258.689; ENMIN  =  194.016 eV

   TITEL  = PAW_PBE Cu_pv 06Sep2000
   POMASS =   63.546; ZVAL   =   17.000    mass and valenz
   ENMAX  =  368.648; ENMIN  =  276.486 eV

   TITEL  = PAW_PBE Fe_pv 02Aug2007
   POMASS =   55.847; ZVAL   =   14.000    mass and valenz
   ENMAX  =  293.238; ENMIN  =  219.928 eV

  PAW_PBE S 06Sep2000                   :
   PAW_PBE Cu_pv 06Sep2000              :
   PAW_PBE Fe_pv 02Aug2007              :

 POSCAR: Fe16 Cu16 S32
  positions in direct lattice
 exchange correlation table for  LEXCH =       14
   RHO(1)=    0.500       N(1)  =     2000
   RHO(2)=  100.500       N(2)  =     4000

 ion  position               nearest neighbor table
   1  0.126  0.125  0.125-  41 2.26  37 2.26  61 2.28  49 2.28
   2  0.626  0.125  0.125-  42 2.26  38 2.26  62 2.28  50 2.28
   3  0.126  0.625  0.125-  43 2.26  39 2.26  63 2.28  51 2.28
   4  0.626  0.625  0.125-  44 2.26  40 2.26  64 2.28  52 2.28
   5  0.374  0.375  0.125-  39 2.26  41 2.26  52 2.28  62 2.28
   6  0.874  0.375  0.125-  40 2.26  42 2.26  51 2.28  61 2.28
   7  0.374  0.875  0.125-  37 2.26  43 2.26  50 2.28  64 2.28
   8  0.874  0.875  0.125-  38 2.26  44 2.26  49 2.28  63 2.28
   9  0.125  0.374  0.875-  41 2.26  45 2.26  51 2.28  55 2.28
  10  0.625  0.374  0.875-  42 2.26  46 2.26  52 2.28  56 2.28
  11  0.125  0.874  0.875-  43 2.26  47 2.26  49 2.28  53 2.28
  12  0.625  0.874  0.875-  44 2.26  48 2.26  50 2.28  54 2.28
  13  0.375  0.126  0.875-  41 2.26  46 2.26  50 2.28  53 2.28
  14  0.875  0.126  0.875-  42 2.26  45 2.26  49 2.28  54 2.28
  15  0.375  0.626  0.875-  43 2.26  48 2.26  52 2.28  55 2.28
  16  0.875  0.626  0.875-  44 2.26  47 2.26  51 2.28  56 2.28
  17  0.124  0.125  0.625-  45 2.26  33 2.26  57 2.28  53 2.28
  18  0.624  0.125  0.625-  46 2.26  34 2.26  58 2.28  54 2.28
  19  0.124  0.625  0.625-  47 2.26  35 2.26  59 2.28  55 2.28
  20  0.624  0.625  0.625-  48 2.26  36 2.26  60 2.28  56 2.28
  21  0.376  0.375  0.625-  36 2.26  46 2.26  55 2.28  57 2.28
  22  0.876  0.375  0.625-  35 2.26  45 2.26  56 2.28  58 2.28
  23  0.376  0.875  0.625-  34 2.26  48 2.26  53 2.28  59 2.28
  24  0.876  0.875  0.625-  33 2.26  47 2.26  54 2.28  60 2.28
  25  0.375  0.124  0.375-  34 2.26  37 2.26  57 2.28  62 2.28
  26  0.875  0.124  0.375-  33 2.26  38 2.26  58 2.28  61 2.28
  27  0.375  0.624  0.375-  36 2.26  39 2.26  59 2.28  64 2.28
  28  0.875  0.624  0.375-  35 2.26  40 2.26  60 2.28  63 2.28
  29  0.125  0.376  0.375-  35 2.26  39 2.26  57 2.28  61 2.28
  30  0.625  0.376  0.375-  36 2.26  40 2.26  58 2.28  62 2.28
  31  0.125  0.876  0.375-  33 2.26  37 2.26  59 2.28  63 2.28
  32  0.625  0.876  0.375-  34 2.26  38 2.26  60 2.28  64 2.28
  33  1.000  0.000  0.500-  24 2.26  31 2.26  26 2.26  17 2.26
  34  0.500  0.000  0.500-  23 2.26  32 2.26  25 2.26  18 2.26
  35  1.000  0.500  0.500-  22 2.26  29 2.26  28 2.26  19 2.26
  36  0.500  0.500  0.500-  21 2.26  30 2.26  27 2.26  20 2.26
  37  0.250  0.000  0.250-   7 2.26  31 2.26  25 2.26   1 2.26
  38  0.750  0.000  0.250-   8 2.26  32 2.26  26 2.26   2 2.26
  39  0.250  0.500  0.250-   5 2.26  29 2.26  27 2.26   3 2.26
  40  0.750  0.500  0.250-   6 2.26  30 2.26  28 2.26   4 2.26
  41  0.250  0.250  1.000-   1 2.26  13 2.26   9 2.26   5 2.26
  42  0.750  0.250  1.000-   2 2.26  14 2.26  10 2.26   6 2.26
  43  0.250  0.750  1.000-   3 2.26  15 2.26  11 2.26   7 2.26
  44  0.750  0.750  1.000-   4 2.26  16 2.26  12 2.26   8 2.26
  45  0.000  0.250  0.750-  17 2.26  14 2.26   9 2.26  22 2.26
  46  0.500  0.250  0.750-  18 2.26  13 2.26  10 2.26  21 2.26
  47  0.000  0.750  0.750-  19 2.26  16 2.26  11 2.26  24 2.26
  48  0.500  0.750  0.750-  20 2.26  15 2.26  12 2.26  23 2.26
  49  1.000  0.000  0.000-   8 2.28  11 2.28  14 2.28   1 2.28
  50  0.500  0.000  0.000-   7 2.28  12 2.28  13 2.28   2 2.28
  51  1.000  0.500  0.000-   6 2.28   9 2.28  16 2.28   3 2.28
  52  0.500  0.500  0.000-   5 2.28  10 2.28  15 2.28   4 2.28
  53  0.250  0.000  0.750-  23 2.28  11 2.28  13 2.28  17 2.28
  54  0.750  0.000  0.750-  24 2.28  12 2.28  14 2.28  18 2.28
  55  0.250  0.500  0.750-  21 2.28   9 2.28  15 2.28  19 2.28
  56  0.750  0.500  0.750-  22 2.28  10 2.28  16 2.28  20 2.28
  57  0.250  0.250  0.500-  17 2.28  25 2.28  29 2.28  21 2.28
  58  0.750  0.250  0.500-  18 2.28  26 2.28  30 2.28  22 2.28
  59  0.250  0.750  0.500-  19 2.28  27 2.28  31 2.28  23 2.28
  60  0.750  0.750  0.500-  20 2.28  28 2.28  32 2.28  24 2.28
  61  0.000  0.250  0.250-   1 2.28  26 2.28  29 2.28   6 2.28
  62  0.500  0.250  0.250-   2 2.28  25 2.28  30 2.28   5 2.28
  63  0.000  0.750  0.250-   3 2.28  28 2.28  31 2.28   8 2.28
  64  0.500  0.750  0.250-   4 2.28  27 2.28  32 2.28   7 2.28

  LATTYP: Found a simple monoclinic cell.
 ALAT       =    14.8490861812
 B/A-ratio  =     0.7081949604
 C/A-ratio  =     1.5753014133
 COS(beta)  =    -0.9490333595

  Lattice vectors:

 A1 = ( -10.5521150000,   0.0000000000, -10.4474030000)
 A2 = (   0.0000000000, -10.5160480000,   0.0000000000)
 A3 = (  10.5884550000,   0.0000000000,  20.8580990000)

Analysis of symmetry for initial positions (statically):
 Subroutine PRICEL returns following result:

  LATTYP: Found a base centered monoclinic cell.
 ALAT       =    11.6303628891
 B/A-ratio  =     0.4520945778
 C/A-ratio  =     0.8951362502
 COS(beta)  =    -0.8127775600

[...]

   8 primitive cells build up your supercell.

 Routine SETGRP: Setting up the symmetry group for a
 simple monoclinic supercell.

 Subroutine GETGRP returns: Found  2 space group operations
 (whereof  1 operations were pure point group operations)
 out of a pool of  4 trial point group operations.

The static configuration has the point symmetry C_1 .
 The point group associated with its full space group is C_2 .

Analysis of symmetry for dynamics (positions and initial velocities):
 Subroutine PRICEL returns following result:

[...]

The dynamic configuration has the point symmetry C_1 .
 The point group associated with its full space group is C_2 .

Analysis of structural, dynamic, and magnetic symmetry:
 Subroutine PRICEL returns following result:

  LATTYP: Found a base centered monoclinic cell.
 ALAT       =    11.6303628891
 B/A-ratio  =     0.4520945778
 C/A-ratio  =     0.8951362502
 COS(beta)  =    -0.8127775600

  Lattice vectors:

 A1 = (  -2.6107737500,  -2.6290120000,   5.1961712500)
 A2 = (  -2.6107737500,   2.6290120000,   5.1961712500)
 A3 = (  -0.0363400000,   0.0000000000, -10.4106960000)

   8 primitive cells build up your supercell.

 Routine SETGRP: Setting up the symmetry group for a
 simple monoclinic supercell.

 Subroutine GETGRP returns: Found  2 space group operations
 (whereof  1 operations were pure point group operations)
 out of a pool of  4 trial point group operations.

The magnetic configuration has the point symmetry C_1 .
 The point group associated with its full space group is C_2 .

 Subroutine INISYM returns: Found  2 space group operations
 (whereof  1 operations are pure point group operations),
 and found     8 'primitive' translations

 KPOINTS: Automatic mesh

Automatic generation of k-mesh.
Space group operators:
 irot       det(A)        alpha          n_x          n_y          n_z        tau_x        tau_y        tau_z
    1     1.000000     0.000000     1.000000     0.000000     0.000000     0.000000     0.000000     0.000000
    2     1.000000   179.999999     0.000000     1.000000     0.000000    -0.250000     0.000000    -0.250000

 Subroutine IBZKPT returns following result:

 Found     30 irreducible k-points:

 Following reciprocal coordinates:
            Coordinates               Weight
  0.000000  0.000000  0.000000      1.000000
  0.250000  0.000000  0.000000      2.000000
  0.500000  0.000000  0.000000      1.000000
  0.000000  0.250000  0.000000      2.000000
  0.250000  0.250000  0.000000      4.000000
  0.500000  0.250000  0.000000      2.000000
  0.000000  0.500000  0.000000      1.000000
  0.250000  0.500000  0.000000      2.000000
  0.500000  0.500000  0.000000      1.000000
  0.000000  0.000000  0.250000      2.000000
  0.250000  0.000000  0.250000      2.000000
  0.500000  0.000000  0.250000      2.000000
 -0.250000  0.000000  0.250000      2.000000
  0.000000  0.250000  0.250000      4.000000
  0.250000  0.250000  0.250000      4.000000
  0.500000  0.250000  0.250000      4.000000
 -0.250000  0.250000  0.250000      4.000000
  0.000000  0.500000  0.250000      2.000000
  0.250000  0.500000  0.250000      2.000000
  0.500000  0.500000  0.250000      2.000000
 -0.250000  0.500000  0.250000      2.000000
  0.000000  0.000000  0.500000      1.000000
  0.250000  0.000000  0.500000      2.000000
  0.500000  0.000000  0.500000      1.000000
  0.000000  0.250000  0.500000      2.000000
  0.250000  0.250000  0.500000      4.000000
  0.500000  0.250000  0.500000      2.000000
  0.000000  0.500000  0.500000      1.000000
  0.250000  0.500000  0.500000      2.000000
  0.500000  0.500000  0.500000      1.000000

 Following cartesian coordinates:
            Coordinates               Weight
  0.000000  0.000000  0.000000      1.000000
  0.023774  0.000000 -0.000083      2.000000
  0.047548  0.000000 -0.000166      1.000000
  0.000000  0.023773  0.000000      2.000000
  0.023774  0.023773 -0.000083      4.000000
  0.047548  0.023773 -0.000166      2.000000
  0.000000  0.047546  0.000000      1.000000
  0.023774  0.047546 -0.000083      2.000000
  0.047548  0.047546 -0.000166      1.000000
 -0.000084  0.000000  0.024014      2.000000
  0.023690  0.000000  0.023931      2.000000
  0.047464  0.000000  0.023848      2.000000
 -0.023858  0.000000  0.024097      2.000000
 -0.000084  0.023773  0.024014      4.000000
  0.023690  0.023773  0.023931      4.000000
  0.047464  0.023773  0.023848      4.000000
 -0.023858  0.023773  0.024097      4.000000
 -0.000084  0.047546  0.024014      2.000000
  0.023690  0.047546  0.023931      2.000000
  0.047464  0.047546  0.023848      2.000000
 -0.023858  0.047546  0.024097      2.000000
 -0.000168  0.000000  0.048028      1.000000
  0.023606  0.000000  0.047945      2.000000
  0.047381  0.000000  0.047862      1.000000
 -0.000168  0.023773  0.048028      2.000000
  0.023606  0.023773  0.047945      4.000000
  0.047381  0.023773  0.047862      2.000000
 -0.000168  0.047546  0.048028      1.000000
  0.023606  0.047546  0.047945      2.000000
  0.047381  0.047546  0.047862      1.000000

 TETIRR: Found    192 inequivalent tetrahedra from      384

 Subroutine IBZKPT_HF returns following result:

 Found     64 k-points in 1st BZ
 the following     64 k-points will be used (e.g. in the exchange kernel)
 Following reciprocal coordinates:   # in IRBZ
  0.000000  0.000000  0.000000    0.01562500   1 t-inv F
  0.250000  0.000000  0.000000    0.01562500   2 t-inv F
[...]
   0.422E+02 0.244E+01 0.209E+00   -.430E+02 -.245E+01 -.211E+00   0.862E+00 0.159E-01 0.241E-02   0.414E-04 -.736E-06 0.652E-06
   -.422E+02 0.244E+01 -.209E+00   0.430E+02 -.245E+01 0.211E+00   -.862E+00 0.159E-01 -.241E-02   -.414E-04 -.736E-06 -.652E-06
   -.422E+02 0.244E+01 -.209E+00   0.430E+02 -.245E+01 0.211E+00   -.862E+00 0.159E-01 -.241E-02   -.414E-04 -.736E-06 -.652E-06
   -.422E+02 0.244E+01 -.209E+00   0.430E+02 -.245E+01 0.211E+00   -.862E+00 0.159E-01 -.241E-02   -.414E-04 -.736E-06 -.652E-06
   -.422E+02 0.244E+01 -.209E+00   0.430E+02 -.245E+01 0.211E+00   -.862E+00 0.159E-01 -.241E-02   -.414E-04 -.736E-06 -.652E-06
   0.517E-07 -.403E+02 0.226E-06   -.462E-13 0.412E+02 -.613E-13   -.242E-17 -.847E+00 0.163E-18   -.537E-13 -.402E-04 0.357E-12
   0.517E-07 -.403E+02 0.226E-06   0.355E-14 0.412E+02 -.586E-13   0.385E-18 -.847E+00 -.163E-18   0.417E-13 -.402E-04 0.385E-12
   0.517E-07 -.403E+02 0.226E-06   -.604E-13 0.412E+02 -.355E-14   0.152E-17 -.847E+00 -.542E-19   -.609E-13 -.402E-04 0.323E-12
   0.517E-07 -.403E+02 0.226E-06   -.391E-13 0.412E+02 -.924E-13   -.265E-17 -.847E+00 0.217E-18   0.118E-12 -.402E-04 0.340E-12
   0.265E-07 0.441E+02 -.196E-06   -.249E-13 -.449E+02 0.128E-12   0.108E-18 0.877E+00 0.130E-17   -.184E-12 0.425E-04 0.317E-12
   0.265E-07 0.441E+02 -.196E-06   -.249E-13 -.449E+02 0.711E-13   -.170E-17 0.877E+00 -.173E-17   0.694E-13 0.425E-04 0.360E-12
   0.265E-07 0.441E+02 -.196E-06   -.426E-13 -.449E+02 0.853E-13   -.936E-18 0.877E+00 -.130E-17   -.115E-12 0.425E-04 0.425E-12
   0.265E-07 0.441E+02 -.196E-06   -.249E-13 -.449E+02 0.728E-13   -.507E-18 0.877E+00 -.108E-17   0.743E-13 0.425E-04 0.368E-12
   -.422E+02 0.244E+01 -.209E+00   0.430E+02 -.245E+01 0.211E+00   -.862E+00 0.159E-01 -.241E-02   -.414E-04 -.736E-06 -.652E-06
   -.422E+02 0.244E+01 -.209E+00   0.430E+02 -.245E+01 0.211E+00   -.862E+00 0.159E-01 -.241E-02   -.414E-04 -.736E-06 -.652E-06
   -.422E+02 0.244E+01 -.209E+00   0.430E+02 -.245E+01 0.211E+00   -.862E+00 0.159E-01 -.241E-02   -.414E-04 -.736E-06 -.652E-06
   -.422E+02 0.244E+01 -.209E+00   0.430E+02 -.245E+01 0.211E+00   -.862E+00 0.159E-01 -.241E-02   -.414E-04 -.736E-06 -.652E-06
   0.422E+02 0.244E+01 0.209E+00   -.430E+02 -.245E+01 -.211E+00   0.862E+00 0.159E-01 0.241E-02   0.414E-04 -.736E-06 0.652E-06
   0.422E+02 0.244E+01 0.209E+00   -.430E+02 -.245E+01 -.211E+00   0.862E+00 0.159E-01 0.241E-02   0.414E-04 -.736E-06 0.652E-06
   0.422E+02 0.244E+01 0.209E+00   -.430E+02 -.245E+01 -.211E+00   0.862E+00 0.159E-01 0.241E-02   0.414E-04 -.736E-06 0.652E-06
   0.422E+02 0.244E+01 0.209E+00   -.430E+02 -.245E+01 -.211E+00   0.862E+00 0.159E-01 0.241E-02   0.414E-04 -.736E-06 0.652E-06
   0.517E-07 -.403E+02 0.226E-06   -.426E-13 0.412E+02 -.604E-13   0.146E-17 -.847E+00 -.542E-19   -.127E-12 -.402E-04 -.431E-13
   0.517E-07 -.403E+02 0.226E-06   -.480E-13 0.412E+02 -.950E-13   -.100E-17 -.847E+00 -.217E-18   0.109E-12 -.402E-04 -.139E-12
   0.517E-07 -.403E+02 0.226E-06   -.284E-13 0.412E+02 -.568E-13   -.266E-17 -.847E+00 0.705E-18   -.872E-13 -.402E-04 -.882E-13
   0.517E-07 -.403E+02 0.226E-06   -.497E-13 0.412E+02 -.924E-13   0.268E-17 -.847E+00 -.163E-18   0.683E-13 -.402E-04 -.125E-12
   0.265E-07 0.441E+02 -.196E-06   -.711E-13 -.449E+02 0.728E-13   -.116E-17 0.877E+00 -.130E-17   -.375E-13 0.425E-04 -.650E-13
   0.265E-07 0.441E+02 -.196E-06   -.568E-13 -.449E+02 0.128E-12   0.229E-17 0.877E+00 0.000E+00   -.188E-13 0.425E-04 -.112E-12
   0.265E-07 0.441E+02 -.196E-06   -.426E-13 -.449E+02 0.320E-13   -.554E-18 0.877E+00 -.217E-18   0.104E-13 0.425E-04 -.218E-13
   0.265E-07 0.441E+02 -.196E-06   -.284E-13 -.449E+02 0.284E-13   0.112E-17 0.877E+00 0.000E+00   -.396E-13 0.425E-04 -.152E-12
   0.510E+00 -.230E+01 0.171E-01   -.504E+00 0.221E+01 -.176E-01   -.691E-02 0.929E-01 0.525E-03   -.552E-05 0.231E-05 -.324E-06
   0.510E+00 -.230E+01 0.171E-01   -.504E+00 0.221E+01 -.176E-01   -.691E-02 0.929E-01 0.525E-03   -.552E-05 0.231E-05 -.324E-06
   0.510E+00 -.230E+01 0.171E-01   -.504E+00 0.221E+01 -.176E-01   -.691E-02 0.929E-01 0.525E-03   -.552E-05 0.231E-05 -.324E-06
   0.510E+00 -.230E+01 0.171E-01   -.504E+00 0.221E+01 -.176E-01   -.691E-02 0.929E-01 0.525E-03   -.552E-05 0.231E-05 -.324E-06
   -.510E+00 -.230E+01 -.170E-01   0.504E+00 0.221E+01 0.176E-01   0.691E-02 0.929E-01 -.525E-03   0.552E-05 0.231E-05 0.324E-06
   -.510E+00 -.230E+01 -.170E-01   0.504E+00 0.221E+01 0.176E-01   0.691E-02 0.929E-01 -.525E-03   0.552E-05 0.231E-05 0.324E-06
   -.510E+00 -.230E+01 -.170E-01   0.504E+00 0.221E+01 0.176E-01   0.691E-02 0.929E-01 -.525E-03   0.552E-05 0.231E-05 0.324E-06
   -.510E+00 -.230E+01 -.170E-01   0.504E+00 0.221E+01 0.176E-01   0.691E-02 0.929E-01 -.525E-03   0.552E-05 0.231E-05 0.324E-06
   0.510E+00 -.230E+01 0.171E-01   -.504E+00 0.221E+01 -.176E-01   -.691E-02 0.929E-01 0.525E-03   -.552E-05 0.231E-05 -.324E-06
   0.510E+00 -.230E+01 0.171E-01   -.504E+00 0.221E+01 -.176E-01   -.691E-02 0.929E-01 0.525E-03   -.552E-05 0.231E-05 -.324E-06
   0.510E+00 -.230E+01 0.171E-01   -.504E+00 0.221E+01 -.176E-01   -.691E-02 0.929E-01 0.525E-03   -.552E-05 0.231E-05 -.324E-06
   0.510E+00 -.230E+01 0.171E-01   -.504E+00 0.221E+01 -.176E-01   -.691E-02 0.929E-01 0.525E-03   -.552E-05 0.231E-05 -.324E-06
   -.510E+00 -.230E+01 -.170E-01   0.504E+00 0.221E+01 0.176E-01   0.691E-02 0.929E-01 -.525E-03   0.552E-05 0.231E-05 0.324E-06
   -.510E+00 -.230E+01 -.170E-01   0.504E+00 0.221E+01 0.176E-01   0.691E-02 0.929E-01 -.525E-03   0.552E-05 0.231E-05 0.324E-06
   -.510E+00 -.230E+01 -.170E-01   0.504E+00 0.221E+01 0.176E-01   0.691E-02 0.929E-01 -.525E-03   0.552E-05 0.231E-05 0.324E-06
   -.510E+00 -.230E+01 -.170E-01   0.504E+00 0.221E+01 0.176E-01   0.691E-02 0.929E-01 -.525E-03   0.552E-05 0.231E-05 0.324E-06
   -.594E+00 -.225E+01 0.278E-01   0.582E+00 0.213E+01 -.287E-01   0.127E-01 0.123E+00 0.589E-03   0.659E-05 -.177E-04 -.263E-06
   -.594E+00 -.225E+01 0.278E-01   0.582E+00 0.213E+01 -.287E-01   0.127E-01 0.123E+00 0.589E-03   0.659E-05 -.177E-04 -.263E-06
   -.594E+00 -.225E+01 0.278E-01   0.582E+00 0.213E+01 -.287E-01   0.127E-01 0.123E+00 0.589E-03   0.659E-05 -.177E-04 -.263E-06
   -.594E+00 -.225E+01 0.278E-01   0.582E+00 0.213E+01 -.287E-01   0.127E-01 0.123E+00 0.589E-03   0.659E-05 -.177E-04 -.263E-06
   0.594E+00 -.225E+01 -.278E-01   -.582E+00 0.213E+01 0.287E-01   -.127E-01 0.123E+00 -.589E-03   -.659E-05 -.177E-04 0.263E-06
   0.594E+00 -.225E+01 -.278E-01   -.582E+00 0.213E+01 0.287E-01   -.127E-01 0.123E+00 -.589E-03   -.659E-05 -.177E-04 0.263E-06
   0.594E+00 -.225E+01 -.278E-01   -.582E+00 0.213E+01 0.287E-01   -.127E-01 0.123E+00 -.589E-03   -.659E-05 -.177E-04 0.263E-06
   0.594E+00 -.225E+01 -.278E-01   -.582E+00 0.213E+01 0.287E-01   -.127E-01 0.123E+00 -.589E-03   -.659E-05 -.177E-04 0.263E-06
   -.594E+00 -.225E+01 0.278E-01   0.582E+00 0.213E+01 -.287E-01   0.127E-01 0.123E+00 0.589E-03   0.659E-05 -.177E-04 -.263E-06
   -.594E+00 -.225E+01 0.278E-01   0.582E+00 0.213E+01 -.287E-01   0.127E-01 0.123E+00 0.589E-03   0.659E-05 -.177E-04 -.263E-06
   -.594E+00 -.225E+01 0.278E-01   0.582E+00 0.213E+01 -.287E-01   0.127E-01 0.123E+00 0.589E-03   0.659E-05 -.177E-04 -.263E-06
   -.594E+00 -.225E+01 0.278E-01   0.582E+00 0.213E+01 -.287E-01   0.127E-01 0.123E+00 0.589E-03   0.659E-05 -.177E-04 -.263E-06
   0.594E+00 -.225E+01 -.278E-01   -.582E+00 0.213E+01 0.287E-01   -.127E-01 0.123E+00 -.589E-03   -.659E-05 -.177E-04 0.263E-06
   0.594E+00 -.225E+01 -.278E-01   -.582E+00 0.213E+01 0.287E-01   -.127E-01 0.123E+00 -.589E-03   -.659E-05 -.177E-04 0.263E-06
   0.594E+00 -.225E+01 -.278E-01   -.582E+00 0.213E+01 0.287E-01   -.127E-01 0.123E+00 -.589E-03   -.659E-05 -.177E-04 0.263E-06
   0.594E+00 -.225E+01 -.278E-01   -.582E+00 0.213E+01 0.287E-01   -.127E-01 0.123E+00 -.589E-03   -.659E-05 -.177E-04 0.263E-06
   0.389E-06 -.396E+01 0.145E-03   0.127E-12 -.319E-12 -.145E-11   0.121E-14 0.396E+01 -.455E-17   -.415E-11 -.240E-03 0.351E-11

 POSITION                                       TOTAL-FORCE (eV/Angst)
      1.33122      1.30991      1.30673         0.000051     -0.000096     -0.000018
      6.58910      1.30991      1.32508         0.000051     -0.000096     -0.000018
      1.33122      6.56793      1.30673         0.000051     -0.000096     -0.000018
      6.58910      6.56793      1.32508         0.000051     -0.000096     -0.000018
      3.93576      3.93892      1.31430        -0.000051     -0.000096      0.000018
      9.19364      3.93892      1.33265        -0.000051     -0.000096      0.000018
      3.93576      9.19695      1.31430        -0.000051     -0.000096      0.000018
      9.19364      9.19695      1.33265        -0.000051     -0.000096      0.000018
      1.34627      3.92816      9.11395         0.000000     -0.000137     -0.000000
      6.60416      3.92816      9.13230         0.000000     -0.000137     -0.000000
      1.34627      9.18619      9.11395         0.000000     -0.000137     -0.000000
      6.60416      9.18619      9.13230         0.000000     -0.000137     -0.000000
      3.97521      1.32340      9.12312         0.000000      0.000034     -0.000000
      9.23310      1.32340      9.14148         0.000000      0.000034     -0.000000
      3.97521      6.58143      9.12312         0.000000      0.000034     -0.000000
      9.23310      6.58143      9.14148         0.000000      0.000034     -0.000000
      1.32498      1.30991      6.51047        -0.000051     -0.000096      0.000018
      6.58287      1.30991      6.52882        -0.000051     -0.000096      0.000018
      1.32498      6.56793      6.51047        -0.000051     -0.000096      0.000018
      6.58287      6.56793      6.52882        -0.000051     -0.000096      0.000018
      3.97833      3.93892      6.52125         0.000051     -0.000096     -0.000018
      9.23622      3.93892      6.53961         0.000051     -0.000096     -0.000018
      3.97833      9.19695      6.52125         0.000051     -0.000096     -0.000018
      9.23622      9.19695      6.53961         0.000051     -0.000096     -0.000018
      3.95704      1.29915      3.91778         0.000000     -0.000137     -0.000000
      9.21493      1.29915      3.93613         0.000000     -0.000137     -0.000000
      3.95704      6.55718      3.91778         0.000000     -0.000137     -0.000000
      9.21493      6.55718      3.93613         0.000000     -0.000137     -0.000000
      1.32810      3.95241      3.90860         0.000000      0.000034     -0.000000
      6.58599      3.95241      3.92695         0.000000      0.000034     -0.000000
      1.32810      9.21044      3.90860         0.000000      0.000034     -0.000000
      6.58599      9.21044      3.92695         0.000000      0.000034     -0.000000
     10.53254      0.00398      5.24203        -0.000263      0.000144     -0.000019
      5.27465      0.00398      5.22368        -0.000263      0.000144     -0.000019
     10.53254      5.26200      5.24203        -0.000263      0.000144     -0.000019
      5.27465      5.26200      5.22368        -0.000263      0.000144     -0.000019
      2.63944      0.00398      2.61188         0.000263      0.000144      0.000019
      7.89733      0.00398      2.63023         0.000263      0.000144      0.000019
      2.63944      5.26200      2.61188         0.000263      0.000144      0.000019
      7.89733      5.26200      2.63023         0.000263      0.000144      0.000019
      2.66387      2.63299     10.41985        -0.000263      0.000144     -0.000019
      7.92176      2.63299     10.43820        -0.000263      0.000144     -0.000019
      2.66387      7.89101     10.41985        -0.000263      0.000144     -0.000019
      7.92176      7.89101     10.43820        -0.000263      0.000144     -0.000019
      0.02866      2.63299      7.80805         0.000263      0.000144      0.000019
      5.28655      2.63299      7.82640         0.000263      0.000144      0.000019
      0.02866      7.89101      7.80805         0.000263      0.000144      0.000019
      5.28655      7.89101      7.82640         0.000263      0.000144      0.000019
     10.51508      0.00385      0.03678         0.000027      0.000003     -0.000244
      5.25719      0.00385      0.01842         0.000027      0.000003     -0.000244
     10.51508      5.26187      0.03678         0.000027      0.000003     -0.000244
      5.25719      5.26187      0.01842         0.000027      0.000003     -0.000244
      2.65689      0.00385      7.81713        -0.000027      0.000003      0.000244
      7.91478      0.00385      7.83548        -0.000027      0.000003      0.000244
      2.65689      5.26187      7.81713        -0.000027      0.000003      0.000244
      7.91478      5.26187      7.83548        -0.000027      0.000003      0.000244
      2.64642      2.63286      5.21460         0.000027      0.000003     -0.000244
      7.90431      2.63286      5.23295         0.000027      0.000003     -0.000244
      2.64642      7.89088      5.21460         0.000027      0.000003     -0.000244
      7.90431      7.89088      5.23295         0.000027      0.000003     -0.000244
      0.00978      2.63286      2.60260        -0.000027      0.000003      0.000244
      5.26767      2.63286      2.62096        -0.000027      0.000003      0.000244
      0.00978      7.89088      2.60260        -0.000027      0.000003      0.000244
      5.26767      7.89088      2.62096        -0.000027      0.000003      0.000244
    total drift:                                0.000000     -0.002302      0.000145

  FREE ENERGIE OF THE ION-ELECTRON SYSTEM (eV)
  free  energy   TOTEN  =      -328.12160937 eV

  energy  without entropy=     -328.12160937  energy(sigma->0) =     -328.12160937

 writing wavefunctions

 total charge

[...]

 magnetization (x)

# of ion       s       p       d       tot
    1        0.000  -0.002   0.000  -0.002
    2        0.000  -0.002   0.000  -0.002
    3        0.000  -0.002   0.000  -0.002
    4        0.000  -0.002   0.000  -0.002
    5        0.000   0.001   0.000   0.002
    6        0.000   0.001   0.000   0.002
    7        0.000   0.001   0.000   0.002
    8        0.000   0.001   0.000   0.002
    9       -0.000   0.000   0.000   0.000
   10       -0.000   0.000   0.000   0.000
   11       -0.000   0.000   0.000   0.000
   12       -0.000   0.000   0.000   0.000
   13       -0.000   0.000   0.000   0.000
   14       -0.000   0.000   0.000   0.000
   15       -0.000   0.000   0.000   0.000
   16       -0.000   0.000   0.000   0.000
   17        0.000   0.001   0.000   0.002
   18        0.000   0.001   0.000   0.002
   19        0.000   0.001   0.000   0.002
   20        0.000   0.001   0.000   0.002
   21        0.000  -0.002   0.000  -0.002
   22        0.000  -0.002   0.000  -0.002
   23        0.000  -0.002   0.000  -0.002
   24        0.000  -0.002   0.000  -0.002
   25       -0.000   0.000   0.000   0.000
   26       -0.000   0.000   0.000   0.000
   27       -0.000   0.000   0.000   0.000
   28       -0.000   0.000   0.000   0.000
   29       -0.000   0.000   0.000   0.000
   30       -0.000   0.000   0.000   0.000
   31       -0.000   0.000   0.000   0.000
   32       -0.000   0.000   0.000   0.000
   33        0.000   0.000  -0.001   0.000
   34        0.000   0.000  -0.001   0.000
   35        0.000   0.000  -0.001   0.000
   36        0.000   0.000  -0.001   0.000
   37       -0.000  -0.000   0.001  -0.000
   38       -0.000  -0.000   0.001  -0.000
   39       -0.000  -0.000   0.001  -0.000
   40       -0.000  -0.000   0.001  -0.000
   41        0.000   0.000  -0.001   0.000
   42        0.000   0.000  -0.001   0.000
   43        0.000   0.000  -0.001   0.000
   44        0.000   0.000  -0.001   0.000
   45       -0.000  -0.000   0.001  -0.000
   46       -0.000  -0.000   0.001  -0.000
   47       -0.000  -0.000   0.001  -0.000
   48       -0.000  -0.000   0.001  -0.000
   49        0.020   0.054   3.671   3.745
   50        0.020   0.054   3.671   3.745
   51        0.020   0.054   3.671   3.745
   52        0.020   0.054   3.671   3.745
   53       -0.020  -0.054  -3.671  -3.745
   54       -0.020  -0.054  -3.671  -3.745
   55       -0.020  -0.054  -3.671  -3.745
   56       -0.020  -0.054  -3.671  -3.745
   57        0.020   0.054   3.671   3.745
   58        0.020   0.054   3.671   3.745
   59        0.020   0.054   3.671   3.745
   60        0.020   0.054   3.671   3.745
   61       -0.020  -0.054  -3.671  -3.745
   62       -0.020  -0.054  -3.671  -3.745
   63       -0.020  -0.054  -3.671  -3.745
   64       -0.020  -0.054  -3.671  -3.745
tot         -0.000   0.000   0.000   0.000

 BZINTS: Fermi energy:  4.988959;688.000000 electrons
         Band energy:***********;  BLOECHL correction:  0.000000