 vasp.5.4.4.18Apr17-6-g9f103f2a35 (build Oct 30 2023 17:49:44) complex

 executed on             LinuxIFC date 2024.12.09  07:52:57

 INCAR:
 POTCAR:    PAW_PBE S 06Sep2000
 POTCAR:     PAW_PBE Cu_pv 06Sep2000
 POTCAR:     PAW_PBE Fe_pv 02Aug2007
 POTCAR:    PAW_PBE S 06Sep2000
   VRHFIN =S : s2p4

   TITEL  = PAW_PBE S 06Sep2000
   POMASS =   32.066; ZVAL   =    6.000    mass and valenz
   ENMAX  =  258.689; ENMIN  =  194.016 eV

   TITEL  = PAW_PBE Cu_pv 06Sep2000
   POMASS =   63.546; ZVAL   =   17.000    mass and valenz
   ENMAX  =  368.648; ENMIN  =  276.486 eV

   TITEL  = PAW_PBE Fe_pv 02Aug2007
   POMASS =   55.847; ZVAL   =   14.000    mass and valenz
   ENMAX  =  293.238; ENMIN  =  219.928 eV

  PAW_PBE S 06Sep2000                   :
   PAW_PBE Cu_pv 06Sep2000              :
   PAW_PBE Fe_pv 02Aug2007              :

 POSCAR: sm_isp_SD0310437-standardized_unitcell
  positions in direct lattice
  velocities in cartesian coordinates
 exchange correlation table for  LEXCH =       14
   RHO(1)=    0.500       N(1)  =     2000
   RHO(2)=  100.500       N(2)  =     4000

 ion  position               nearest neighbor table
   1  0.252  0.250  0.125-  10 2.25  11 2.25  13 2.26  16 2.26
   2  0.748  0.750  0.125-  10 2.25  11 2.25  13 2.26  16 2.26
   3  0.250  0.747  0.875-  11 2.25  12 2.25  14 2.27  13 2.27
   4  0.750  0.253  0.875-  11 2.25  12 2.25  14 2.27  13 2.27
   5  0.248  0.250  0.625-   9 2.25  12 2.25  14 2.26  15 2.26
   6  0.752  0.750  0.625-   9 2.25  12 2.25  14 2.26  15 2.26
   7  0.750  0.247  0.375-   9 2.25  10 2.25  15 2.27  16 2.27
   8  0.250  0.753  0.375-   9 2.25  10 2.25  15 2.27  16 2.27
   9  0.000  0.000  0.501-   5 2.25   6 2.25   7 2.25   8 2.25
  10  0.500  0.000  0.249-   1 2.25   2 2.25   7 2.25   8 2.25
  11  0.500  0.500  0.001-   1 2.25   2 2.25   4 2.25   3 2.25
  12  0.000  0.500  0.749-   5 2.25   6 2.25   4 2.25   3 2.25
  13  0.000  0.000  1.000-   2 2.26   1 2.26   3 2.27   4 2.27
  14  0.500  0.000  0.750-   6 2.26   5 2.26   3 2.27   4 2.27
  15  0.500  0.500  0.500-   6 2.26   5 2.26   8 2.27   7 2.27
  16  0.000  0.500  0.250-   2 2.26   1 2.26   8 2.27   7 2.27

  LATTYP: Found a simple orthorhombic cell.
 ALAT       =     5.1010220859
 B/A-ratio  =     1.0736917286
 C/A-ratio  =     1.9792277963

  Lattice vectors:

 A1 = (   5.1010220859,   0.0000000000,   0.0000000000)
 A2 = (   0.0000000000,   5.4769252208,   0.0000000000)
 A3 = (   0.0000000000,   0.0000000000,  10.0960847020)

Analysis of symmetry for initial positions (statically):
 Subroutine PRICEL returns following result:

  LATTYP: Found a body centered orthorhombic cell.
 ALAT       =     5.1010220859
 B/A-ratio  =     1.0736917286
 C/A-ratio  =     1.9792277963

[...]

   2 primitive cells build up your supercell.

 Routine SETGRP: Setting up the symmetry group for a
 simple orthorhombic supercell.

 Subroutine GETGRP returns: Found  4 space group operations
 (whereof  2 operations were pure point group operations)
 out of a pool of  8 trial point group operations.

The static configuration has the point symmetry C_2 .
 The point group associated with its full space group is D_2 .

Analysis of symmetry for dynamics (positions and initial velocities):
 Subroutine PRICEL returns following result:

[...]

The dynamic configuration has the point symmetry C_2 .
 The point group associated with its full space group is D_2 .

Analysis of structural, dynamic, and magnetic symmetry:
 Subroutine PRICEL returns following result:

  LATTYP: Found a body centered orthorhombic cell.
 ALAT       =     5.1010220859
 B/A-ratio  =     1.0736917286
 C/A-ratio  =     1.9792277963

  Lattice vectors:

 A1 = (   2.5505110429,  -2.7384626104,   5.0480423510)
 A2 = (  -2.5505110429,   2.7384626104,   5.0480423510)
 A3 = (  -2.5505110429,  -2.7384626104,  -5.0480423510)

   2 primitive cells build up your supercell.

 Routine SETGRP: Setting up the symmetry group for a
 simple orthorhombic supercell.

 Subroutine GETGRP returns: Found  4 space group operations
 (whereof  2 operations were pure point group operations)
 out of a pool of  8 trial point group operations.

The (compounded) configuration has the point symmetry C_2 .
 The point group associated with its full space group is D_2 .

 Subroutine INISYM returns: Found  4 space group operations
 (whereof  2 operations are pure point group operations),
 and found     2 'primitive' translations

 KPOINTS: Automatic mesh

Automatic generation of k-mesh.
Space group operators:
 irot       det(A)        alpha          n_x          n_y          n_z        tau_x        tau_y        tau_z
    1     1.000000     0.000000     1.000000     0.000000     0.000000     0.000000     0.000000     0.000000
    2     1.000000   179.999999     0.000000     0.000000     1.000000     0.000000     0.000000     0.000000
    3     1.000000   180.000000     0.000000     1.000000     0.000000     0.000000    -0.500000     0.250000
    4     1.000000   180.000000     1.000000     0.000000     0.000000     0.000000    -0.500000     0.250000

 Subroutine IBZKPT returns following result:

 Found     36 irreducible k-points:

 Following reciprocal coordinates:
            Coordinates               Weight
  0.000000  0.000000  0.000000      1.000000
  0.166667  0.000000  0.000000      2.000000
  0.333333  0.000000  0.000000      2.000000
  0.500000  0.000000  0.000000      1.000000
  0.000000  0.166667  0.000000      2.000000
  0.166667  0.166667  0.000000      4.000000
  0.333333  0.166667  0.000000      4.000000
  0.500000  0.166667  0.000000      2.000000
  0.000000  0.333333  0.000000      2.000000
  0.166667  0.333333  0.000000      4.000000
  0.333333  0.333333  0.000000      4.000000
  0.500000  0.333333  0.000000      2.000000
  0.000000  0.500000  0.000000      1.000000
  0.166667  0.500000  0.000000      2.000000
  0.333333  0.500000  0.000000      2.000000
  0.500000  0.500000  0.000000      1.000000
  0.000000  0.000000  0.333333      2.000000
  0.166667  0.000000  0.333333      4.000000
  0.333333  0.000000  0.333333      4.000000
  0.500000  0.000000  0.333333      2.000000
  0.000000  0.166667  0.333333      4.000000
  0.166667  0.166667  0.333333      4.000000
  0.333333  0.166667  0.333333      4.000000
  0.500000  0.166667  0.333333      4.000000
 -0.333333  0.166667  0.333333      4.000000
 -0.166667  0.166667  0.333333      4.000000
  0.000000  0.333333  0.333333      4.000000
  0.166667  0.333333  0.333333      4.000000
  0.333333  0.333333  0.333333      4.000000
  0.500000  0.333333  0.333333      4.000000
 -0.333333  0.333333  0.333333      4.000000
 -0.166667  0.333333  0.333333      4.000000
  0.000000  0.500000  0.333333      2.000000
  0.166667  0.500000  0.333333      4.000000
  0.333333  0.500000  0.333333      4.000000
  0.500000  0.500000  0.333333      2.000000

 Following cartesian coordinates:
            Coordinates               Weight
  0.000000  0.000000  0.000000      1.000000
  0.032673  0.000000  0.000000      2.000000
  0.065346  0.000000  0.000000      2.000000
  0.098020  0.000000  0.000000      1.000000
  0.000000  0.030431  0.000000      2.000000
  0.032673  0.030431  0.000000      4.000000
  0.065346  0.030431  0.000000      4.000000
  0.098020  0.030431  0.000000      2.000000
  0.000000  0.060861  0.000000      2.000000
  0.032673  0.060861  0.000000      4.000000
  0.065346  0.060861  0.000000      4.000000
  0.098020  0.060861  0.000000      2.000000
  0.000000  0.091292  0.000000      1.000000
  0.032673  0.091292  0.000000      2.000000
  0.065346  0.091292  0.000000      2.000000
  0.098020  0.091292  0.000000      1.000000
  0.000000  0.000000  0.033016      2.000000
  0.032673  0.000000  0.033016      4.000000
  0.065346  0.000000  0.033016      4.000000
  0.098020  0.000000  0.033016      2.000000
  0.000000  0.030431  0.033016      4.000000
  0.032673  0.030431  0.033016      4.000000
  0.065346  0.030431  0.033016      4.000000
  0.098020  0.030431  0.033016      4.000000
 -0.065346  0.030431  0.033016      4.000000
 -0.032673  0.030431  0.033016      4.000000
  0.000000  0.060861  0.033016      4.000000
  0.032673  0.060861  0.033016      4.000000
  0.065346  0.060861  0.033016      4.000000
  0.098020  0.060861  0.033016      4.000000
 -0.065346  0.060861  0.033016      4.000000
 -0.032673  0.060861  0.033016      4.000000
  0.000000  0.091292  0.033016      2.000000
  0.032673  0.091292  0.033016      4.000000
  0.065346  0.091292  0.033016      4.000000
  0.098020  0.091292  0.033016      2.000000

 TETIRR: Found    544 inequivalent tetrahedra from      648

 SYSTEM =  CuFeS2
 POSCAR =  sm_isp_SD0310437-standardized_unitcell

 Startparameter for this run:
   NWRITE =      2    write-flag & timer
   PREC   = accura    normal or accurate (medium, high low for compatibility)
   ISTART =      1    job   : 0-new  1-cont  2-samecut
   ICHARG =      1    charge: 1-file 2-atom 10-const
   ISPIN  =      1    spin polarized calculation?
   LNONCOLLINEAR =      T non collinear calculations
   LSORBIT =      F    spin-orbit coupling
   INIWAV =      1    electr: 0-lowe 1-rand  2-diag
   LASPH  =      T    aspherical Exc in radial PAW
   METAGGA=      F    non-selfconsistent MetaGGA calc.

 Electronic Relaxation 1
   ENCUT  =  700.0 eV  51.45 Ry    7.17 a.u.  11.00 11.82 21.78*2*pi/ulx,y,z
   ENINI  =  700.0     initial cutoff
   ENAUG  =  758.2 eV  augmentation charge cutoff
   NELM   =    200;   NELMIN=  2; NELMDL=  0     # of ELM steps
   EDIFF  = 0.1E-07   stopping-criterion for ELM
   LREAL  =      F    real-space projection
   NLSPLINE    = F    spline interpolate recip. space projectors
   LCOMPAT=      F    compatible to vasp.4.4
   GGA_COMPAT  = T    GGA compatible to vasp.4.4-vasp.4.6
   LMAXPAW     = -100 max onsite density
   LMAXMIX     =    4 max onsite mixed and CHGCAR
   VOSKOWN=      0    Vosko Wilk Nusair interpolation
   ROPT   =    0.00000   0.00000   0.00000
 Ionic relaxation
   EDIFFG = -.1E-04   stopping-criterion for IOM
   NSW    =      0    number of steps for IOM
   NBLOCK =      1;   KBLOCK =      1    inner block; outer block
   IBRION =     -1    ionic relax: 0-MD 1-quasi-New 2-CG
   NFREE  =      0    steps in history (QN), initial steepest desc. (CG)
   ISIF   =      2    stress and relaxation
   IWAVPR =     10    prediction:  0-non 1-charg 2-wave 3-comb
   ISYM   =      1    0-nonsym 1-usesym 2-fastsym
   LCORR  =      T    Harris-Foulkes like correction to forces

   POTIM  = 0.1000    time-step for ionic-motion
   TEIN   =    0.0    initial temperature
   TEBEG  =    0.0;   TEEND  =   0.0 temperature during run
   SMASS  =  -3.00    Nose mass-parameter (am)
   estimated Nose-frequenzy (Omega)   =  0.10E-29 period in steps =****** mass=  -0.595E-27a.u.
   SCALEE = 1.0000    scale energy and forces
   NPACO  =    256;   APACO  = 16.0  distance and # of slots for P.C.
   PSTRESS=    0.0 pullay stress

  Mass of Ions in am
   POMASS =  32.07 63.55 55.85
  Ionic Valenz
   ZVAL   =   6.00 17.00 14.00
  Atomic Wigner-Seitz radii
  virtual crystal weights
   VCA    =   1.00  1.00  1.00
   NELECT =     172.0000    total number of electrons
   NUPDOWN=      -1.0000    fix difference up-down

[...]
 Maximum number of real-space cells 3x 3x 2
 Maximum number of reciprocal cells 2x 2x 4

--------------------------------------- Iteration      1(   1)  ---------------------------------------

 BZINTS: Fermi energy:  5.179597;172.000000 electrons
         Band energy:***********;  BLOECHL correction:  0.000000
 BZINTS: Fermi energy:  5.179593;172.000000 electrons
         Band energy:***********;  BLOECHL correction:  0.000000

 eigenvalue-minimisations  :     0
 total energy-change (2. order) :-0.8193356E+02  (-0.9910169E-05)
 number of electron     171.9999887 magnetization       0.0000000      0.0000000      0.0000000
 augmentation part       70.5487745 magnetization      -0.0000001      0.0000001     -0.0004368

 Free energy of the ion-electron system (eV)
  alpha Z        PSCENC =       600.74013862
  Ewald energy   TEWEN  =    -15727.81767961
  -Hartree energ DENC   =    -10669.30835550
  -exchange      EXHF   =         0.00000000
  -V(xc)+E(xc)   XCENC  =       822.23940907
  PAW double counting   =     28240.04019370   -29163.95351196
  entropy T*S    EENTRO =         0.00000000
  eigenvalues    EBANDS =     -2688.89002991
  atomic energy  EATOM  =     28505.01627691
  free energy    TOTEN  =       -81.93355869 eV

  energy without entropy =      -81.93355869  energy(sigma->0) =      -81.93355869

[...]

 eigenvalue-minimisations  :     0
 total energy-change (2. order) : 0.2650631E-07  (-0.6223760E-07)
 number of electron     171.9999887 magnetization       0.0000000      0.0000000      0.0000000
 augmentation part       70.5487749 magnetization      -0.0000001      0.0000004     -0.0004368

[...]

 eigenvalue-minimisations  :     0
 total energy-change (2. order) :-0.1617809E-06  (-0.8489184E-08)
 number of electron     171.9999887 magnetization       0.0000000      0.0000000      0.0000000
 augmentation part       70.5487749 magnetization      -0.0000001      0.0000004     -0.0004368

[...]

--------------------------------------- Iteration      1(  36)  ---------------------------------------

 BZINTS: Fermi energy:  5.179595;172.000000 electrons
         Band energy:***********;  BLOECHL correction:  0.000000
 BZINTS: Fermi energy:  5.179595;172.000000 electrons
         Band energy:***********;  BLOECHL correction:  0.000000

 eigenvalue-minimisations  :     0
 total energy-change (2. order) : 0.4409230E-08  (-0.8723528E-08)
 number of electron     171.9999887 magnetization       0.0000000      0.0000000      0.0000000
 augmentation part       70.5487749 magnetization      -0.0000001      0.0000004     -0.0004368

 Free energy of the ion-electron system (eV)
  alpha Z        PSCENC =       600.74013862
  Ewald energy   TEWEN  =    -15727.81767961
  -Hartree energ DENC   =    -10669.30831546
  -exchange      EXHF   =         0.00000000
  -V(xc)+E(xc)   XCENC  =       822.23937419
  PAW double counting   =     28240.04161482   -29163.95494238
  entropy T*S    EENTRO =         0.00000000
  eigenvalues    EBANDS =     -2688.89007624
  atomic energy  EATOM  =     28505.01627691
  free energy    TOTEN  =       -81.93360915 eV

  energy without entropy =      -81.93360915  energy(sigma->0) =      -81.93360915

  average scaling for gradient   0.9497

 average (electrostatic) potential at core
  the test charge radii are     0.9698  0.8297  0.9500
  (the norm of the test charge is              1.0000)
       1 -86.4495       2 -86.4495       3 -86.4446       4 -86.4446       5 -86.4495
       6 -86.4495       7 -86.4446       8 -86.4446       9 -80.5624      10 -80.5624
      11 -80.5624      12 -80.5624      13 -79.9584      14 -79.9584      15 -79.9584
      16 -79.9584

 E-fermi :   5.1796     XC(G=0): -10.5676     alpha+bet :-10.7559

 k-point     1 :       0.0000    0.0000    0.0000
  band No.  band energies     occupation
      1     -64.1560      1.00000
      2     -64.1560      1.00000
      3     -64.1560      1.00000
      4     -64.1560      1.00000
      5     -64.1529      1.00000
      6     -64.1529      1.00000
      7     -64.1529      1.00000
      8     -64.1529      1.00000
      9     -64.1446      1.00000
     10     -64.1446      1.00000
     11     -64.1445      1.00000
     12     -64.1445      1.00000
     13     -64.1388      1.00000
     14     -64.1388      1.00000
     15     -64.1388      1.00000
     16     -64.1388      1.00000
     17     -64.1309      1.00000
     18     -64.1309      1.00000
     19     -64.1309      1.00000
     20     -64.1309      1.00000
     21     -64.1170      1.00000
     22     -64.1170      1.00000
     23     -64.1170      1.00000
     24     -64.1170      1.00000
     25     -51.6431      1.00000
     26     -51.6431      1.00000
     27     -51.6431      1.00000
     28     -51.6431      1.00000
     29     -51.6049      1.00000
     30     -51.6049      1.00000
     31     -51.6049      1.00000
     32     -51.6049      1.00000
     33     -51.4908      1.00000
     34     -51.4908      1.00000
     35     -51.4908      1.00000
     36     -51.4908      1.00000
     37     -47.4972      1.00000
     38     -47.4972      1.00000
     39     -47.4972      1.00000
     40     -47.4972      1.00000
     41     -47.4922      1.00000
     42     -47.4922      1.00000
     43     -47.4922      1.00000
     44     -47.4922      1.00000
     45     -47.4399      1.00000
     46     -47.4399      1.00000
     47     -47.4399      1.00000
     48     -47.4399      1.00000
     49      -9.0176      1.00000
     50      -9.0176      1.00000
     51      -8.3569      1.00000
     52      -8.3569      1.00000
     53      -8.3295      1.00000
     54      -8.3295      1.00000
     55      -7.7223      1.00000
     56      -7.7223      1.00000
     57      -7.6429      1.00000
     58      -7.6429      1.00000
     59      -7.6264      1.00000
     60      -7.6264      1.00000
[...]
    194       7.9939      0.00000
    195       8.8649      0.00000
    196       8.8649      0.00000
    197       8.8871      0.00000
    198       8.8871      0.00000
    199       9.3833      0.00000
    200       9.3833      0.00000
    201       9.5596      0.00000
    202       9.5596      0.00000
    203       9.8106      0.00000
    204       9.8106      0.00000
    205      10.1513      0.00000
    206      10.1513      0.00000
    207      10.2322      0.00000
    208      10.2322      0.00000

[...]

 k-point    36 :       0.5000    0.5000    0.3333
  band No.  band energies     occupation
      1     -64.1560      1.00000
      2     -64.1560      1.00000
      3     -64.1560      1.00000
      4     -64.1560      1.00000
      5     -64.1529      1.00000
      6     -64.1529      1.00000
      7     -64.1529      1.00000
      8     -64.1529      1.00000
      9     -64.1446      1.00000
     10     -64.1446      1.00000
     11     -64.1446      1.00000
     12     -64.1446      1.00000
     13     -64.1388      1.00000
     14     -64.1388      1.00000
     15     -64.1388      1.00000
     16     -64.1388      1.00000
     17     -64.1309      1.00000
     18     -64.1309      1.00000
     19     -64.1309      1.00000
     20     -64.1309      1.00000
     21     -64.1170      1.00000
     22     -64.1170      1.00000
     23     -64.1170      1.00000
     24     -64.1170      1.00000
     25     -51.6431      1.00000
     26     -51.6431      1.00000
     27     -51.6431      1.00000
     28     -51.6431      1.00000
     29     -51.6049      1.00000
     30     -51.6049      1.00000
     31     -51.6049      1.00000
     32     -51.6049      1.00000
     33     -51.4908      1.00000
     34     -51.4908      1.00000
     35     -51.4908      1.00000
     36     -51.4908      1.00000
     37     -47.4972      1.00000
     38     -47.4972      1.00000
     39     -47.4972      1.00000
     40     -47.4972      1.00000
     41     -47.4922      1.00000
     42     -47.4922      1.00000
     43     -47.4922      1.00000
     44     -47.4922      1.00000
     45     -47.4399      1.00000
     46     -47.4399      1.00000
     47     -47.4399      1.00000
     48     -47.4399      1.00000
     49      -8.0039      1.00000
     50      -8.0039      1.00000
     51      -8.0027      1.00000
     52      -8.0027      1.00000
     53      -7.9982      1.00000
     54      -7.9982      1.00000
     55      -7.9933      1.00000
     56      -7.9933      1.00000
     57      -7.9780      1.00000
     58      -7.9780      1.00000
     59      -7.9673      1.00000
     60      -7.9673      1.00000
[...]
    194       9.5416      0.00000
    195       9.5442      0.00000
    196       9.5442      0.00000
    197       9.7699      0.00000
    198       9.7699      0.00000
    199       9.7853      0.00000
    200       9.7853      0.00000
    201      10.2280      0.00000
    202      10.2280      0.00000
    203      10.2311      0.00000
    204      10.2311      0.00000
    205      10.6369      0.00000
    206      10.6369      0.00000
    207      10.6541      0.00000
    208      10.6541      0.00000

 soft charge-density along one line, spin component           1
         0         1         2         3         4         5         6         7         8         9
 total charge-density along one line

[...]

 soft charge-density along one line, spin component           4
         0         1         2         3         4         5         6         7         8         9
 total charge-density along one line

------------------------ aborting loop because EDIFF is reached ----------------------------------------

 total charge

# of ion       s       p       d       tot
    1        1.314   2.418   0.000   3.732
    2        1.314   2.417   0.000   3.731
    3        1.314   2.415   0.000   3.729
    4        1.314   2.415   0.000   3.729
    5        1.314   2.417   0.000   3.731
    6        1.314   2.418   0.000   3.732
    7        1.314   2.415   0.000   3.729
    8        1.314   2.415   0.000   3.729
    9        0.264   6.209   8.915  15.388
   10        0.264   6.209   8.916  15.389
   11        0.264   6.209   8.915  15.388
   12        0.264   6.209   8.916  15.389
   13        0.353   6.360   5.836  12.549
   14        0.353   6.360   5.836  12.549
   15        0.353   6.360   5.836  12.549
   16        0.353   6.360   5.836  12.549
tot         12.980  69.606  59.004 141.590

 magnetization (x)

[...]

 magnetization (y)

[...]

 magnetization (z)

[...]

  FORCE on cell =-STRESS in cart. coord.  units (eV):
  Direction    XX          YY          ZZ          XY          YZ          ZX
  Alpha Z   600.74014   600.74014   600.74014
  Ewald   -5339.40689 -5016.45188 -5372.00050     0.00000     0.00000     0.00000
  Hartree  3509.28525  3658.67057  3501.35249    -0.00000     0.00000     0.00000
  E(xc)   -1051.31690 -1051.13223 -1051.31227    -0.00000    -0.00000    -0.00000
  Local   -1065.94896 -1536.95307 -1022.10694     0.00000    -0.00000    -0.00000
  n-local   122.10299   126.52516   122.10448    -0.21288    -0.08187    -0.01716
  augment  1180.52411  1183.12230  1178.18399    -0.00000    -0.00000    -0.00000
  Kinetic  2048.38090  2035.47954  2047.02205    -0.84080     0.05436    -0.00522
  Fock        0.00000     0.00000     0.00000     0.00000     0.00000     0.00000
  Total       4.36064     0.00053     3.98344     0.00000     0.00000     0.00000
  in kB      24.76929     0.00302    22.62674     0.00000     0.00000     0.00000

 VOLUME and BASIS-vectors are now :
  energy-cutoff  :      700.00
  volume of cell :      282.06
      direct lattice vectors                 reciprocal lattice vectors
     5.101022086  0.000000000  0.000000000     0.196039143  0.000000000  0.000000000
     0.000000000  5.476925221  0.000000000     0.000000000  0.182584198  0.000000000
     0.000000000  0.000000000 10.096084702     0.000000000  0.000000000  0.099048297

  length of vectors
     5.101022086  5.476925221 10.096084702     0.196039143  0.182584198  0.099048297

 FORCES acting on ions:
    Electron-Ion                     Ewald-Force                    Non-Local-Force
   0.416E+02 0.239E-12 0.174E-12   -.424E+02 0.824E-12 -.853E-13   0.834E+00 0.434E-18 0.867E-18
   -.416E+02 0.796E-12 0.707E-12   0.424E+02 -.141E-11 -.568E-13   -.834E+00 0.000E+00 -.867E-18
   0.512E-12 -.453E+02 0.546E-12   -.118E-10 0.462E+02 -.790E-11   0.108E-17 -.955E+00 0.173E-17
   0.124E-11 0.453E+02 -.819E-12   0.118E-10 -.462E+02 -.801E-11   0.867E-18 0.955E+00 -.173E-17
   -.416E+02 0.193E-12 0.295E-13   0.424E+02 0.854E-12 0.426E-13   -.834E+00 0.000E+00 -.260E-17
   0.416E+02 -.210E-12 0.200E-12   -.424E+02 -.134E-11 0.568E-13   0.834E+00 0.434E-18 0.173E-17
   0.109E-11 -.453E+02 0.102E-11   0.117E-10 0.462E+02 0.813E-11   0.108E-17 -.955E+00 0.173E-17
   0.384E-12 0.453E+02 0.380E-12   -.118E-10 -.462E+02 0.784E-11   0.867E-18 0.955E+00 -.173E-17
   -.872E-13 -.161E-12 -.283E+01   0.124E-04 -.254E-04 0.286E+01   -.217E-18 0.000E+00 -.266E-01
   0.115E-11 0.280E-12 0.283E+01   -.124E-04 -.254E-04 -.286E+01   0.217E-18 0.000E+00 0.266E-01
   0.133E-11 0.148E-10 -.283E+01   -.124E-04 0.254E-04 0.286E+01   -.217E-18 0.000E+00 -.266E-01
   -.324E-12 0.125E-11 0.283E+01   0.124E-04 0.254E-04 -.286E+01   0.217E-18 0.000E+00 0.266E-01
   0.280E-13 -.363E-12 0.809E+01   -.961E-05 0.213E-04 -.809E+01   0.000E+00 0.000E+00 -.271E-02
   0.851E-12 0.363E-12 -.809E+01   0.961E-05 0.213E-04 0.809E+01   0.000E+00 0.000E+00 0.271E-02
   0.674E-12 -.136E-11 0.809E+01   0.961E-05 -.213E-04 -.809E+01   0.000E+00 0.000E+00 -.271E-02
   0.213E-12 0.120E-11 -.809E+01   -.961E-05 -.213E-04 0.809E+01   0.000E+00 0.000E+00 0.271E-02
   0.135E-10 0.221E-10 0.323E-10   -.830E-13 -.641E-13 -.426E-13   0.195E-17 0.111E-15 0.382E-16

 POSITION                                       TOTAL-FORCE (eV/Angst)
      1.28564      1.36923      1.26201        -0.000000     -0.000000      0.000000
      3.81538      4.10769      1.26201         0.000000     -0.000000     -0.000000
      1.27526      4.09226      8.83407         0.000000     -0.000002      0.000000
      3.82577      1.38467      8.83407         0.000000      0.000002      0.000000
      1.26487      1.36923      6.31005         0.000000     -0.000000      0.000000
      3.83615      4.10769      6.31005        -0.000000     -0.000000     -0.000000
      3.82577      1.35380      3.78603         0.000000     -0.000002      0.000000
      1.27526      4.12313      3.78603         0.000000      0.000002      0.000000
      0.00000      0.00000      5.05528         0.000000     -0.000000     -0.000006
      2.55051      0.00000      2.51678         0.000000     -0.000000      0.000006
      2.55051      2.73846      0.00724         0.000000     -0.000000     -0.000006
      0.00000      2.73846      7.56483         0.000000     -0.000000      0.000006
      0.00000      0.00000     10.09530         0.000000     -0.000000      0.000006
      2.55051      0.00000      7.57285         0.000000     -0.000000     -0.000006
      2.55051      2.73846      5.04726         0.000000     -0.000000      0.000006
      0.00000      2.73846      2.52480         0.000000     -0.000000     -0.000006
    total drift:                                0.000000      0.000000      0.000000

  FREE ENERGIE OF THE ION-ELECTRON SYSTEM (eV)
  free  energy   TOTEN  =       -81.93360915 eV

  energy  without entropy=      -81.93360915  energy(sigma->0) =      -81.93360915

 writing wavefunctions

 total charge

[...]

 magnetization (x)

[...]

 magnetization (y)

[...]

 magnetization (z)

# of ion       s       p       d       tot
    1        0.000  -0.003   0.000  -0.003
    2        0.000  -0.003   0.000  -0.003
    3       -0.000   0.003   0.000   0.003
    4       -0.000   0.003   0.000   0.003
    5        0.000  -0.003   0.000  -0.003
    6        0.000  -0.003   0.000  -0.003
    7       -0.000   0.003   0.000   0.003
    8       -0.000   0.003   0.000   0.003
    9        0.000   0.001  -0.005  -0.004
   10       -0.000  -0.001   0.005   0.003
   11        0.000   0.001  -0.005  -0.004
   12       -0.000  -0.001   0.005   0.003
   13        0.019   0.055   3.645   3.720
   14       -0.019  -0.055  -3.645  -3.719
   15        0.019   0.055   3.645   3.720
   16       -0.019  -0.055  -3.645  -3.719
tot         -0.000   0.000  -0.001  -0.000

 BZINTS: Fermi energy:  5.179595;172.000000 electrons
         Band energy:***********;  BLOECHL correction:  0.000000
 BZINTS: Fermi energy:  5.179595;172.000000 electrons
         Band energy:***********;  BLOECHL correction:  0.000000
 BZINTS: Fermi energy:  5.179595;172.000000 electrons
         Band energy:***********;  BLOECHL correction:  0.000000
 BZINTS: Fermi energy:  5.179595;172.000000 electrons
         Band energy:***********;  BLOECHL correction:  0.000000