 vasp.5.4.4.18Apr17-6-g9f103f2a35 (build Oct 04 2018 15:53:47) complex

 executed on             LinuxIFC date 2022.10.07  15:46:26

 INCAR:
 POTCAR:    PAW_PBE S 06Sep2000
 POTCAR:     PAW_PBE Cu_pv 06Sep2000
 POTCAR:     PAW_PBE Fe_pv 02Aug2007
 POTCAR:    PAW_PBE S 06Sep2000
   VRHFIN =S : s2p4

   TITEL  = PAW_PBE S 06Sep2000
   POMASS =   32.066; ZVAL   =    6.000    mass and valenz
   ENMAX  =  258.689; ENMIN  =  194.016 eV

   TITEL  = PAW_PBE Cu_pv 06Sep2000
   POMASS =   63.546; ZVAL   =   17.000    mass and valenz
   ENMAX  =  368.648; ENMIN  =  276.486 eV

   TITEL  = PAW_PBE Fe_pv 02Aug2007
   POMASS =   55.847; ZVAL   =   14.000    mass and valenz
   ENMAX  =  293.238; ENMIN  =  219.928 eV

  PAW_PBE S 06Sep2000                   :
   PAW_PBE Cu_pv 06Sep2000              :
   PAW_PBE Fe_pv 02Aug2007              :

 POSCAR: sm_isp_SD0310437-standardized_unitcell
  positions in direct lattice
  velocities in cartesian coordinates
 exchange correlation table for  LEXCH =       14
   RHO(1)=    0.500       N(1)  =     2000
   RHO(2)=  100.500       N(2)  =     4000

 ion  position               nearest neighbor table
   1  0.253  0.250  0.125-  10 2.25  11 2.25  13 2.27  16 2.27
   2  0.747  0.750  0.125-  10 2.25  11 2.25  13 2.27  16 2.27
   3  0.250  0.747  0.875-  11 2.25  12 2.25  13 2.27  14 2.27
   4  0.750  0.253  0.875-  11 2.25  12 2.25  13 2.27  14 2.27
   5  0.247  0.250  0.625-   9 2.25  12 2.25  14 2.27  15 2.27
   6  0.753  0.750  0.625-   9 2.25  12 2.25  14 2.27  15 2.27
   7  0.750  0.247  0.375-   9 2.25  10 2.25  15 2.27  16 2.27
   8  0.250  0.753  0.375-   9 2.25  10 2.25  15 2.27  16 2.27
   9  0.000  0.000  0.500-   5 2.25   7 2.25   6 2.25   8 2.25
  10  0.500  0.000  0.250-   7 2.25   1 2.25   2 2.25   8 2.25
  11  0.500  0.500  0.000-   1 2.25   4 2.25   3 2.25   2 2.25
  12  0.000  0.500  0.750-   5 2.25   4 2.25   3 2.25   6 2.25
  13  0.000  0.000  0.000-   2 2.27   3 2.27   1 2.27   4 2.27
  14  0.500  0.000  0.750-   3 2.27   6 2.27   4 2.27   5 2.27
  15  0.500  0.500  0.500-   6 2.27   8 2.27   7 2.27   5 2.27
  16  0.000  0.500  0.250-   2 2.27   8 2.27   1 2.27   7 2.27

  LATTYP: Found a simple tetragonal cell.
 ALAT       =     5.1010220859
 C/A-ratio  =     2.1319435952

  Lattice vectors:

 A1 = (   5.1010220859,   0.0000000000,   0.0000000000)
 A2 = (   0.0000000000,   5.1010220859,   0.0000000000)
 A3 = (   0.0000000000,   0.0000000000,  10.8750913648)

Analysis of symmetry for initial positions (statically):
 Subroutine PRICEL returns following result:

  LATTYP: Found a body centered tetragonal cell.
 ALAT       =     5.1010220859
 C/A-ratio  =     2.1319435952

[...]

   2 primitive cells build up your supercell.

 Routine SETGRP: Setting up the symmetry group for a
 simple tetragonal supercell.

 Subroutine GETGRP returns: Found  8 space group operations
 (whereof  4 operations were pure point group operations)
 out of a pool of 16 trial point group operations.

The static configuration has the point symmetry S_4 .
 The point group associated with its full space group is D_2d.

Analysis of symmetry for dynamics (positions and initial velocities):
 Subroutine PRICEL returns following result:

[...]

The dynamic configuration has the point symmetry S_4 .
 The point group associated with its full space group is D_2d.

Analysis of structural, dynamic, and magnetic symmetry:
 Subroutine PRICEL returns following result:

  LATTYP: Found a body centered tetragonal cell.
 ALAT       =     5.1010220859
 C/A-ratio  =     2.1319435952

  Lattice vectors:

 A1 = (   2.5505110429,  -2.5505110429,   5.4375456824)
 A2 = (  -2.5505110429,   2.5505110429,   5.4375456824)
 A3 = (  -2.5505110429,  -2.5505110429,  -5.4375456824)

   2 primitive cells build up your supercell.

 Routine SETGRP: Setting up the symmetry group for a
 simple tetragonal supercell.

 Subroutine GETGRP returns: Found  8 space group operations
 (whereof  4 operations were pure point group operations)
 out of a pool of 16 trial point group operations.

The (compounded) configuration has the point symmetry S_4 .
 The point group associated with its full space group is D_2d.

 Subroutine INISYM returns: Found  8 space group operations
 (whereof  4 operations are pure point group operations),
 and found     2 'primitive' translations

 KPOINTS: Automatic mesh

Automatic generation of k-mesh.
Space group operators:
 irot       det(A)        alpha          n_x          n_y          n_z        tau_x        tau_y        tau_z
    1     1.000000     0.000001     1.000000     0.000000     0.000000     0.000000     0.000000     0.000000
    2    -1.000000    90.000000     0.000000     0.000000    -1.000000     0.000000     0.000000     0.000000
    3     1.000000   179.999999     0.000000     0.000000     1.000000     0.000000     0.000000     0.000000
    4    -1.000000    90.000000     0.000000     0.000000     1.000000     0.000000     0.000000     0.000000
    5     1.000000   180.000000     0.000000     1.000000     0.000000     0.000000    -0.500000     0.250000
    6    -1.000000   180.000000     0.707107     0.707107     0.000000     0.000000    -0.500000     0.250000
    7     1.000000   180.000000     1.000000     0.000000     0.000000     0.000000    -0.500000     0.250000
    8    -1.000000   180.000000     0.707107    -0.707107     0.000000     0.000000    -0.500000     0.250000

 Subroutine IBZKPT returns following result:

 Found     23 irreducible k-points:

 Following reciprocal coordinates:
            Coordinates               Weight
  0.000000  0.000000  0.000000      1.000000
  0.166667  0.000000  0.000000      4.000000
  0.333333  0.000000  0.000000      4.000000
  0.500000  0.000000  0.000000      2.000000
  0.166667  0.166667  0.000000      4.000000
  0.333333  0.166667  0.000000      8.000000
  0.500000  0.166667  0.000000      4.000000
  0.333333  0.333333  0.000000      4.000000
  0.500000  0.333333  0.000000      4.000000
  0.500000  0.500000  0.000000      1.000000
  0.000000  0.000000  0.333333      2.000000
  0.166667  0.000000  0.333333      8.000000
  0.333333  0.000000  0.333333      8.000000
  0.500000  0.000000  0.333333      4.000000
  0.166667  0.166667  0.333333      4.000000
  0.333333  0.166667  0.333333      8.000000
  0.500000  0.166667  0.333333      8.000000
 -0.333333  0.166667  0.333333      8.000000
 -0.166667  0.166667  0.333333      4.000000
  0.333333  0.333333  0.333333      4.000000
  0.500000  0.333333  0.333333      8.000000
 -0.333333  0.333333  0.333333      4.000000
  0.500000  0.500000  0.333333      2.000000

 Following cartesian coordinates:
            Coordinates               Weight
  0.000000  0.000000  0.000000      1.000000
  0.032673  0.000000  0.000000      4.000000
  0.065346  0.000000  0.000000      4.000000
  0.098020  0.000000  0.000000      2.000000
  0.032673  0.032673  0.000000      4.000000
  0.065346  0.032673  0.000000      8.000000
  0.098020  0.032673  0.000000      4.000000
  0.065346  0.065346  0.000000      4.000000
  0.098020  0.065346  0.000000      4.000000
  0.098020  0.098020  0.000000      1.000000
  0.000000  0.000000  0.030651      2.000000
  0.032673  0.000000  0.030651      8.000000
  0.065346  0.000000  0.030651      8.000000
  0.098020  0.000000  0.030651      4.000000
  0.032673  0.032673  0.030651      4.000000
  0.065346  0.032673  0.030651      8.000000
  0.098020  0.032673  0.030651      8.000000
 -0.065346  0.032673  0.030651      8.000000
 -0.032673  0.032673  0.030651      4.000000
  0.065346  0.065346  0.030651      4.000000
  0.098020  0.065346  0.030651      8.000000
 -0.065346  0.065346  0.030651      4.000000
  0.098020  0.098020  0.030651      2.000000

 TETIRR: Found    274 inequivalent tetrahedra from      648

 SYSTEM =  CuFeS2
 POSCAR =  sm_isp_SD0310437-standardized_unitcell

 Startparameter for this run:
   NWRITE =      2    write-flag & timer
   PREC   = accura    normal or accurate (medium, high low for compatibility)
   ISTART =      1    job   : 0-new  1-cont  2-samecut
   ICHARG =      1    charge: 1-file 2-atom 10-const
   ISPIN  =      1    spin polarized calculation?
   LNONCOLLINEAR =      T non collinear calculations
   LSORBIT =      F    spin-orbit coupling
   INIWAV =      1    electr: 0-lowe 1-rand  2-diag
   LASPH  =      T    aspherical Exc in radial PAW
   METAGGA=      F    non-selfconsistent MetaGGA calc.

 Electronic Relaxation 1
   ENCUT  =  700.0 eV  51.45 Ry    7.17 a.u.  11.00 11.00 23.46*2*pi/ulx,y,z
   ENINI  =  700.0     initial cutoff
   ENAUG  =  758.2 eV  augmentation charge cutoff
   NELM   =    200;   NELMIN=  2; NELMDL=  0     # of ELM steps
   EDIFF  = 0.1E-07   stopping-criterion for ELM
   LREAL  =      F    real-space projection
   NLSPLINE    = F    spline interpolate recip. space projectors
   LCOMPAT=      F    compatible to vasp.4.4
   GGA_COMPAT  = T    GGA compatible to vasp.4.4-vasp.4.6
   LMAXPAW     = -100 max onsite density
   LMAXMIX     =    4 max onsite mixed and CHGCAR
   VOSKOWN=      0    Vosko Wilk Nusair interpolation
   ROPT   =    0.00000   0.00000   0.00000
 Ionic relaxation
   EDIFFG = -.1E-04   stopping-criterion for IOM
   NSW    =      0    number of steps for IOM
   NBLOCK =      1;   KBLOCK =      1    inner block; outer block
   IBRION =     -1    ionic relax: 0-MD 1-quasi-New 2-CG
   NFREE  =      0    steps in history (QN), initial steepest desc. (CG)
   ISIF   =      2    stress and relaxation
   IWAVPR =     10    prediction:  0-non 1-charg 2-wave 3-comb
   ISYM   =      1    0-nonsym 1-usesym 2-fastsym
   LCORR  =      T    Harris-Foulkes like correction to forces

   POTIM  = 0.1000    time-step for ionic-motion
   TEIN   =    0.0    initial temperature
   TEBEG  =    0.0;   TEEND  =   0.0 temperature during run
   SMASS  =  -3.00    Nose mass-parameter (am)
   estimated Nose-frequenzy (Omega)   =  0.10E-29 period in steps =****** mass=  -0.595E-27a.u.
   SCALEE = 1.0000    scale energy and forces
   NPACO  =    256;   APACO  = 16.0  distance and # of slots for P.C.
   PSTRESS=    0.0 pullay stress

  Mass of Ions in am
   POMASS =  32.07 63.55 55.85
  Ionic Valenz
   ZVAL   =   6.00 17.00 14.00
  Atomic Wigner-Seitz radii
  virtual crystal weights
   VCA    =   1.00  1.00  1.00
   NELECT =     172.0000    total number of electrons
   NUPDOWN=      -1.0000    fix difference up-down

 DOS related values:
   EMIN   =  10.00;   EMAX   =-10.00  energy-range for DOS
   EFERMI =   0.00
   ISMEAR =    -5;   SIGMA  =   0.03  broadening in eV -4-tet -1-fermi 0-gaus

 Electronic relaxation 2 (details)
   IALGO  =     58    algorithm
   LDIAG  =      T    sub-space diagonalisation (order eigenvalues)
   LSUBROT=      F    optimize rotation matrix (better conditioning)
   TURBO    =      0    0=normal 1=particle mesh
   IRESTART =      0    0=no restart 2=restart with 2 vectors
   NREBOOT  =      0    no. of reboots
   NMIN     =      0    reboot dimension
   EREF     =   0.00    reference energy to select bands
   IMIX   =      4    mixing-type and parameters
     AMIX     =   0.40;   BMIX     =  1.00
     AMIX_MAG =   1.60;   BMIX_MAG =  1.00
     AMIN     =   0.10
[...]

 BZINTS: Fermi energy:  5.055098;172.000000 electrons
         Band energy:***********;  BLOECHL correction:  0.000000
 Maximum index for augmentation-charges          943 (set IRDMAX)

 initial charge from wavefunction
 First call to EWALD:  gamma=   0.270
 Maximum number of real-space cells 3x 3x 2
 Maximum number of reciprocal cells 2x 2x 4

--------------------------------------- Iteration      1(   1)  ---------------------------------------

 BZINTS: Fermi energy:  5.055091;172.000000 electrons
         Band energy:***********;  BLOECHL correction:  0.000000
 BZINTS: Fermi energy:  5.055098;172.000000 electrons
         Band energy:***********;  BLOECHL correction:  0.000000

 eigenvalue-minimisations  :     0
 total energy-change (2. order) :-0.8194419E+02  (-0.5818207E-07)
 number of electron     171.9999902 magnetization       0.0000000     -0.0000000      0.0000000
 augmentation part       70.5446551 magnetization      -0.0000001     -0.0000002     -0.0003721

 Free energy of the ion-electron system (eV)
  alpha Z        PSCENC =       598.80625611
  Ewald energy   TEWEN  =    -15709.01508602
  -Hartree energ DENC   =    -10679.31345844
  -exchange      EXHF   =         0.00000000
  -V(xc)+E(xc)   XCENC  =       822.14050799
  PAW double counting   =     28225.72805342   -29149.83779659
  entropy T*S    EENTRO =         0.00000000
  eigenvalues    EBANDS =     -2695.46894311
  atomic energy  EATOM  =     28505.01627691
  free energy    TOTEN  =       -81.94418973 eV

  energy without entropy =      -81.94418973  energy(sigma->0) =      -81.94418973

[...]

 eigenvalue-minimisations  :     0
 total energy-change (2. order) :-0.2976285E-06  (-0.7611954E-09)
 number of electron     171.9999902 magnetization       0.0000000      0.0000000      0.0000000
 augmentation part       70.5446547 magnetization       0.0000001      0.0000000     -0.0003721

[...]

--------------------------------------- Iteration      1(  24)  ---------------------------------------

 BZINTS: Fermi energy:  5.055092;172.000000 electrons
         Band energy:***********;  BLOECHL correction:  0.000000
 BZINTS: Fermi energy:  5.055092;172.000000 electrons
         Band energy:***********;  BLOECHL correction:  0.000000

 eigenvalue-minimisations  :     0
 total energy-change (2. order) : 0.5020411E-08  (-0.5653593E-09)
 number of electron     171.9999902 magnetization      -0.0000000      0.0000000     -0.0000000
 augmentation part       70.5446547 magnetization       0.0000001      0.0000000     -0.0003721

 Free energy of the ion-electron system (eV)
  alpha Z        PSCENC =       598.80625611
  Ewald energy   TEWEN  =    -15709.01508602
  -Hartree energ DENC   =    -10679.31336213
  -exchange      EXHF   =         0.00000000
  -V(xc)+E(xc)   XCENC  =       822.14048571
  PAW double counting   =     28225.72721693   -29149.83695645
  entropy T*S    EENTRO =         0.00000000
  eigenvalues    EBANDS =     -2695.46903047
  atomic energy  EATOM  =     28505.01627691
  free energy    TOTEN  =       -81.94419940 eV

  energy without entropy =      -81.94419940  energy(sigma->0) =      -81.94419940

  average scaling for gradient   0.8320

 average (electrostatic) potential at core
  the test charge radii are     0.9698  0.8297  0.9500
  (the norm of the test charge is              1.0000)
       1 -86.4645       2 -86.4645       3 -86.4645       4 -86.4645       5 -86.4645
       6 -86.4645       7 -86.4645       8 -86.4645       9 -80.6005      10 -80.6005
      11 -80.6005      12 -80.6005      13 -80.0253      14 -80.0253      15 -80.0253
      16 -80.0253

 E-fermi :   5.0551     XC(G=0): -10.5500     alpha+bet :-10.7213

 k-point     1 :       0.0000    0.0000    0.0000
  band No.  band energies     occupation
      1     -64.2267      1.00000
      2     -64.2267      1.00000
      3     -64.2266      1.00000
      4     -64.2266      1.00000
      5     -64.1895      1.00000
      6     -64.1895      1.00000
      7     -64.1895      1.00000
      8     -64.1895      1.00000
      9     -64.1638      1.00000
     10     -64.1638      1.00000
     11     -64.1638      1.00000
     12     -64.1638      1.00000
     13     -64.1638      1.00000
     14     -64.1638      1.00000
     15     -64.1638      1.00000
     16     -64.1638      1.00000
     17     -64.1614      1.00000
     18     -64.1614      1.00000
     19     -64.1614      1.00000
     20     -64.1614      1.00000
     21     -64.1614      1.00000
     22     -64.1614      1.00000
     23     -64.1614      1.00000
     24     -64.1614      1.00000
     25     -51.6857      1.00000
     26     -51.6857      1.00000
     27     -51.6857      1.00000
     28     -51.6857      1.00000
     29     -51.6857      1.00000
     30     -51.6857      1.00000
     31     -51.6857      1.00000
     32     -51.6857      1.00000
     33     -51.5879      1.00000
     34     -51.5879      1.00000
     35     -51.5878      1.00000
     36     -51.5878      1.00000
     37     -47.5524      1.00000
     38     -47.5524      1.00000
     39     -47.5524      1.00000
     40     -47.5524      1.00000
     41     -47.5524      1.00000
     42     -47.5524      1.00000
     43     -47.5524      1.00000
     44     -47.5524      1.00000
     45     -47.4970      1.00000
     46     -47.4970      1.00000
     47     -47.4970      1.00000
     48     -47.4970      1.00000
     49      -9.0285      1.00000
     50      -9.0285      1.00000
     51      -8.4495      1.00000
     52      -8.4495      1.00000
     53      -8.4292      1.00000
     54      -8.4292      1.00000
     55      -7.7227      1.00000
     56      -7.7227      1.00000
     57      -7.5862      1.00000
     58      -7.5862      1.00000
     59      -7.5862      1.00000
     60      -7.5862      1.00000
[...]
    194       7.9500      0.00000
    195       8.8378      0.00000
    196       8.8378      0.00000
    197       8.8378      0.00000
    198       8.8378      0.00000
    199       9.3109      0.00000
    200       9.3109      0.00000
    201       9.5299      0.00000
    202       9.5299      0.00000
    203       9.7944      0.00000
    204       9.7944      0.00000
    205      10.0701      0.00000
    206      10.0701      0.00000
    207      10.2722      0.00000
    208      10.2722      0.00000

[...]

 k-point    23 :       0.5000    0.5000    0.3333
  band No.  band energies     occupation
      1     -64.2267      1.00000
      2     -64.2267      1.00000
      3     -64.2267      1.00000
      4     -64.2267      1.00000
      5     -64.1895      1.00000
      6     -64.1895      1.00000
      7     -64.1895      1.00000
      8     -64.1895      1.00000
      9     -64.1638      1.00000
     10     -64.1638      1.00000
     11     -64.1638      1.00000
     12     -64.1638      1.00000
     13     -64.1638      1.00000
     14     -64.1638      1.00000
     15     -64.1638      1.00000
     16     -64.1638      1.00000
     17     -64.1614      1.00000
     18     -64.1614      1.00000
     19     -64.1614      1.00000
     20     -64.1614      1.00000
     21     -64.1614      1.00000
     22     -64.1614      1.00000
     23     -64.1614      1.00000
     24     -64.1614      1.00000
     25     -51.6857      1.00000
     26     -51.6857      1.00000
     27     -51.6857      1.00000
     28     -51.6857      1.00000
     29     -51.6857      1.00000
     30     -51.6857      1.00000
     31     -51.6857      1.00000
     32     -51.6857      1.00000
     33     -51.5879      1.00000
     34     -51.5879      1.00000
     35     -51.5879      1.00000
     36     -51.5879      1.00000
     37     -47.5524      1.00000
     38     -47.5524      1.00000
     39     -47.5524      1.00000
     40     -47.5524      1.00000
     41     -47.5524      1.00000
     42     -47.5524      1.00000
     43     -47.5524      1.00000
     44     -47.5524      1.00000
     45     -47.4970      1.00000
     46     -47.4970      1.00000
     47     -47.4970      1.00000
     48     -47.4970      1.00000
     49      -8.0050      1.00000
     50      -8.0050      1.00000
     51      -8.0050      1.00000
     52      -8.0049      1.00000
     53      -8.0032      1.00000
     54      -8.0031      1.00000
     55      -8.0031      1.00000
     56      -8.0031      1.00000
     57      -7.9886      1.00000
     58      -7.9885      1.00000
     59      -7.9885      1.00000
     60      -7.9885      1.00000
[...]
    194       9.6597      0.00000
    195       9.6597      0.00000
    196       9.6597      0.00000
    197       9.7801      0.00000
    198       9.7801      0.00000
    199       9.7801      0.00000
    200       9.7801      0.00000
    201      10.5226      0.00000
    202      10.5226      0.00000
    203      10.5226      0.00000
    204      10.5226      0.00000
    205      10.7932      0.00000
    206      10.7932      0.00000
    207      10.7933      0.00000
    208      10.7933      0.00000

 soft charge-density along one line, spin component           1
         0         1         2         3         4         5         6         7         8         9
 total charge-density along one line

[...]

 soft charge-density along one line, spin component           4
         0         1         2         3         4         5         6         7         8         9
 total charge-density along one line

------------------------ aborting loop because EDIFF is reached ----------------------------------------

 total charge

# of ion       s       p       d       tot
    1        1.313   2.418   0.000   3.731
    2        1.313   2.418   0.000   3.731
    3        1.313   2.417   0.000   3.730
    4        1.313   2.416   0.000   3.730
    5        1.313   2.418   0.000   3.731
    6        1.313   2.418   0.000   3.731
    7        1.313   2.417   0.000   3.730
    8        1.313   2.416   0.000   3.730
    9        0.264   6.211   8.913  15.388
   10        0.264   6.211   8.913  15.388
   11        0.264   6.211   8.913  15.388
   12        0.264   6.211   8.913  15.388
   13        0.353   6.357   5.830  12.539
   14        0.353   6.357   5.829  12.538
   15        0.353   6.357   5.830  12.539
   16        0.353   6.357   5.829  12.538
tot         12.975  69.607  58.970 141.552

 magnetization (x)

[...]

 magnetization (y)

[...]

 magnetization (z)

[...]

  FORCE on cell =-STRESS in cart. coord.  units (eV):
  Direction    XX          YY          ZZ          XY          YZ          ZX
  Alpha Z   598.80626   598.80626   598.80626
  Ewald   -5346.65541 -5346.65541 -5015.73948    -0.00000     0.00000    -0.00000
  Hartree  3500.95665  3500.95665  3677.40005    -0.00000    -0.00000    -0.00000
  E(xc)   -1051.21644 -1051.21644 -1051.02888    -0.00000    -0.00000    -0.00000
  Local   -1048.26991 -1048.26991 -1552.60948    -0.00000    -0.00000    -0.00000
  n-local   121.50444   123.17109   126.82625    -0.28660     0.01559    -0.01672
  augment  1180.56571  1180.56571  1181.79841    -0.00000     0.00000    -0.00000
  Kinetic  2040.15417  2054.37523  2034.54678    -0.89578     0.11588     0.00178
  Fock        0.00000     0.00000     0.00000     0.00000     0.00000     0.00000
  Total       3.78933     3.78933    -0.00009     0.00000     0.00000     0.00000
  in kB      21.45484    21.45484    -0.00051     0.00000     0.00000     0.00000

 VOLUME and BASIS-vectors are now :
  energy-cutoff  :      700.00
  volume of cell :      282.97
      direct lattice vectors                 reciprocal lattice vectors
     5.101022086  0.000000000  0.000000000     0.196039143  0.000000000  0.000000000
     0.000000000  5.101022086  0.000000000     0.000000000  0.196039143  0.000000000
     0.000000000  0.000000000 10.875091365     0.000000000  0.000000000  0.091953250

  length of vectors
     5.101022086  5.101022086 10.875091365     0.196039143  0.196039143  0.091953250

 FORCES acting on ions:
    Electron-Ion                     Ewald-Force                    Non-Local-Force
   0.419E+02 0.298E-12 0.115E-12   -.427E+02 0.284E-13 -.568E-13   0.849E+00 0.317E-18 0.496E-18
   -.419E+02 0.621E-12 0.649E-12   0.427E+02 0.568E-13 -.568E-13   -.849E+00 -.122E-18 -.152E-18
   0.535E-12 -.419E+02 -.314E-13   -.107E-13 0.427E+02 0.000E+00   -.775E-19 -.849E+00 0.696E-19
   0.579E-12 0.419E+02 -.144E-11   0.169E-13 -.427E+02 -.426E-13   0.559E-18 0.849E+00 0.310E-18
   -.419E+02 -.479E-12 -.947E-13   0.427E+02 0.373E-13 0.284E-13   -.849E+00 -.998E-19 -.624E-18
   0.419E+02 0.643E-12 -.695E-12   -.427E+02 0.400E-13 0.000E+00   0.849E+00 0.700E-18 -.502E-18
   0.357E-12 -.419E+02 0.421E-12   0.995E-13 0.427E+02 0.142E-12   -.562E-19 -.849E+00 0.269E-19
   0.357E-12 0.419E+02 0.528E-12   0.142E-12 -.427E+02 0.853E-13   0.931E-19 0.849E+00 -.258E-18
   0.000E+00 0.435E-12 0.333E-11   0.100E-04 -.213E-04 -.568E-13   0.450E-18 -.262E-18 0.157E-17
   0.152E-11 -.501E-12 -.683E-11   -.100E-04 -.213E-04 0.293E-18   0.112E-19 -.665E-19 -.114E-17
   0.152E-11 -.490E-11 0.125E-12   -.100E-04 0.213E-04 -.568E-13   -.955E-19 0.488E-19 0.152E-17
   0.000E+00 0.103E-11 0.476E-11   0.100E-04 0.213E-04 0.196E-13   -.442E-18 -.244E-18 -.117E-17
   0.535E-12 0.217E-12 0.784E-13   -.736E-05 0.179E-04 0.000E+00   -.490E-18 0.534E-18 0.459E-17
   0.120E-11 -.195E-12 -.302E-10   0.736E-05 0.179E-04 0.301E-12   0.543E-18 0.351E-18 0.346E-17
   0.120E-11 -.424E-11 -.955E-11   0.736E-05 -.179E-04 -.114E-12   -.159E-18 -.174E-19 -.429E-17
   0.490E-12 0.423E-12 0.601E-12   -.736E-05 -.179E-04 -.171E-12   0.698E-18 0.290E-18 -.479E-17
   0.140E-10 -.190E-12 -.385E-10   -.130E-13 0.299E-13 0.218E-13   0.112E-15 -.110E-15 -.872E-18

 POSITION                                       TOTAL-FORCE (eV/Angst)
      1.29089      1.27526      1.35939        -0.000009      0.000000     -0.000000
      3.81013      3.82577      1.35939         0.000009     -0.000000     -0.000000
      1.27526      3.81013      9.51570        -0.000000      0.000009     -0.000000
      3.82577      1.29089      9.51570        -0.000000     -0.000009      0.000000
      1.25962      1.27526      6.79693         0.000009     -0.000000     -0.000000
      3.84140      3.82577      6.79693        -0.000009      0.000000      0.000000
      3.82577      1.25962      4.07816        -0.000000      0.000009     -0.000000
      1.27526      3.84140      4.07816        -0.000000     -0.000009     -0.000000
      0.00000      0.00000      5.43755        -0.000000      0.000000     -0.000000
      2.55051      0.00000      2.71877         0.000000     -0.000000      0.000000
      2.55051      2.55051      0.00000        -0.000000     -0.000000     -0.000000
      0.00000      2.55051      8.15632         0.000000     -0.000000     -0.000000
      0.00000      0.00000      0.00000        -0.000000     -0.000000     -0.000000
      2.55051      0.00000      8.15632         0.000000     -0.000000      0.000000
      2.55051      2.55051      5.43755         0.000000     -0.000000     -0.000000
      0.00000      2.55051      2.71877         0.000000     -0.000000      0.000000
    total drift:                                0.000000     -0.000000     -0.000000

  FREE ENERGIE OF THE ION-ELECTRON SYSTEM (eV)
  free  energy   TOTEN  =       -81.94419940 eV

  energy  without entropy=      -81.94419940  energy(sigma->0) =      -81.94419940

 writing wavefunctions

 total charge

[...]

 magnetization (x)

[...]

 magnetization (y)

[...]

 magnetization (z)

# of ion       s       p       d       tot
    1        0.000  -0.003   0.000  -0.002
    2        0.000  -0.004   0.000  -0.003
    3       -0.000   0.003   0.000   0.003
    4       -0.000   0.003   0.000   0.003
    5        0.000  -0.004   0.000  -0.003
    6        0.000  -0.003   0.000  -0.002
    7       -0.000   0.003   0.000   0.003
    8       -0.000   0.003   0.000   0.003
    9        0.001  -0.001   0.010   0.009
   10       -0.001   0.001  -0.010  -0.009
   11        0.001  -0.001   0.010   0.009
   12       -0.001   0.001  -0.010  -0.009
   13        0.020   0.054   3.659   3.732
   14       -0.020  -0.054  -3.659  -3.733
   15        0.020   0.054   3.659   3.732
   16       -0.020  -0.054  -3.659  -3.733
tot         -0.000   0.001  -0.001  -0.000

 BZINTS: Fermi energy:  5.055093;172.000000 electrons
         Band energy:***********;  BLOECHL correction:  0.000000
 BZINTS: Fermi energy:  5.055093;172.000000 electrons
         Band energy:***********;  BLOECHL correction:  0.000000
 BZINTS: Fermi energy:  5.055093;172.000000 electrons
         Band energy:***********;  BLOECHL correction:  0.000000
 BZINTS: Fermi energy:  5.055093;172.000000 electrons
         Band energy:***********;  BLOECHL correction:  0.000000