 vasp.5.4.4.18Apr17-6-g9f103f2a35 (build Oct 04 2018 15:53:47) complex

 executed on             LinuxIFC date 2022.10.07  15:46:26

 INCAR:
 POTCAR:    PAW_PBE S 06Sep2000
 POTCAR:     PAW_PBE Cu_pv 06Sep2000
 POTCAR:     PAW_PBE Fe_pv 02Aug2007
 POTCAR:    PAW_PBE S 06Sep2000
   VRHFIN =S : s2p4

   TITEL  = PAW_PBE S 06Sep2000
   POMASS =   32.066; ZVAL   =    6.000    mass and valenz
   ENMAX  =  258.689; ENMIN  =  194.016 eV

   TITEL  = PAW_PBE Cu_pv 06Sep2000
   POMASS =   63.546; ZVAL   =   17.000    mass and valenz
   ENMAX  =  368.648; ENMIN  =  276.486 eV

   TITEL  = PAW_PBE Fe_pv 02Aug2007
   POMASS =   55.847; ZVAL   =   14.000    mass and valenz
   ENMAX  =  293.238; ENMIN  =  219.928 eV

  PAW_PBE S 06Sep2000                   :
   PAW_PBE Cu_pv 06Sep2000              :
   PAW_PBE Fe_pv 02Aug2007              :

 POSCAR: sm_isp_SD0310437-standardized_unitcell
  positions in direct lattice
  velocities in cartesian coordinates
 exchange correlation table for  LEXCH =       14
   RHO(1)=    0.500       N(1)  =     2000
   RHO(2)=  100.500       N(2)  =     4000

 ion  position               nearest neighbor table
   1  0.252  0.250  0.125-  10 2.27  11 2.27  13 2.28  16 2.28
   2  0.748  0.750  0.125-  10 2.27  11 2.27  13 2.28  16 2.28
   3  0.250  0.748  0.875-  11 2.27  12 2.27  13 2.28  14 2.28
   4  0.750  0.252  0.875-  11 2.27  12 2.27  13 2.28  14 2.28
   5  0.248  0.250  0.625-   9 2.27  12 2.27  14 2.28  15 2.28
   6  0.752  0.750  0.625-   9 2.27  12 2.27  14 2.28  15 2.28
   7  0.750  0.248  0.375-   9 2.27  10 2.27  15 2.28  16 2.28
   8  0.250  0.752  0.375-   9 2.27  10 2.27  15 2.28  16 2.28
   9  0.000  0.000  0.500-   5 2.27   7 2.27   8 2.27   6 2.27
  10  0.500  0.000  0.250-   7 2.27   1 2.27   8 2.27   2 2.27
  11  0.500  0.500  0.000-   1 2.27   4 2.27   3 2.27   2 2.27
  12  0.000  0.500  0.750-   5 2.27   4 2.27   3 2.27   6 2.27
  13  0.000  0.000  0.000-   3 2.28   2 2.28   1 2.28   4 2.28
  14  0.500  0.000  0.750-   3 2.28   6 2.28   4 2.28   5 2.28
  15  0.500  0.500  0.500-   8 2.28   6 2.28   7 2.28   5 2.28
  16  0.000  0.500  0.250-   8 2.28   2 2.28   1 2.28   7 2.28

  LATTYP: Found a simple tetragonal cell.
 ALAT       =     5.3639613686
 C/A-ratio  =     1.8843965121

  Lattice vectors:

 A1 = (   5.3639613686,   0.0000000000,   0.0000000000)
 A2 = (   0.0000000000,   5.3639613686,   0.0000000000)
 A3 = (   0.0000000000,   0.0000000000,  10.1078300942)

Analysis of symmetry for initial positions (statically):
 Subroutine PRICEL returns following result:

  LATTYP: Found a body centered tetragonal cell.
 ALAT       =     5.3639613686
 C/A-ratio  =     1.8843965121

[...]

   2 primitive cells build up your supercell.

 Routine SETGRP: Setting up the symmetry group for a
 simple tetragonal supercell.

 Subroutine GETGRP returns: Found  8 space group operations
 (whereof  4 operations were pure point group operations)
 out of a pool of 16 trial point group operations.

The static configuration has the point symmetry S_4 .
 The point group associated with its full space group is D_2d.

Analysis of symmetry for dynamics (positions and initial velocities):
 Subroutine PRICEL returns following result:

[...]

The dynamic configuration has the point symmetry S_4 .
 The point group associated with its full space group is D_2d.

Analysis of structural, dynamic, and magnetic symmetry:
 Subroutine PRICEL returns following result:

  LATTYP: Found a body centered tetragonal cell.
 ALAT       =     5.3639613686
 C/A-ratio  =     1.8843965121

  Lattice vectors:

 A1 = (   2.6819806843,  -2.6819806843,   5.0539150471)
 A2 = (  -2.6819806843,   2.6819806843,   5.0539150471)
 A3 = (  -2.6819806843,  -2.6819806843,  -5.0539150471)

   2 primitive cells build up your supercell.

 Routine SETGRP: Setting up the symmetry group for a
 simple tetragonal supercell.

 Subroutine GETGRP returns: Found  8 space group operations
 (whereof  4 operations were pure point group operations)
 out of a pool of 16 trial point group operations.

The (compounded) configuration has the point symmetry S_4 .
 The point group associated with its full space group is D_2d.

 Subroutine INISYM returns: Found  8 space group operations
 (whereof  4 operations are pure point group operations),
 and found     2 'primitive' translations

 KPOINTS: Automatic mesh

Automatic generation of k-mesh.
Space group operators:
 irot       det(A)        alpha          n_x          n_y          n_z        tau_x        tau_y        tau_z
    1     1.000000     0.000001     1.000000     0.000000     0.000000     0.000000     0.000000     0.000000
    2    -1.000000    90.000000     0.000000     0.000000    -1.000000     0.000000     0.000000     0.000000
    3     1.000000   180.000000     0.000000     0.000000     1.000000     0.000000     0.000000     0.000000
    4    -1.000000    90.000000     0.000000     0.000000     1.000000     0.000000     0.000000     0.000000
    5     1.000000   179.999999     0.000000     1.000000     0.000000     0.000000    -0.500000     0.250000
    6    -1.000000   179.999999     0.707107     0.707107     0.000000     0.000000    -0.500000     0.250000
    7     1.000000   179.999999     1.000000     0.000000     0.000000     0.000000    -0.500000     0.250000
    8    -1.000000   179.999999     0.707107    -0.707107     0.000000     0.000000    -0.500000     0.250000

 Subroutine IBZKPT returns following result:

 Found     23 irreducible k-points:

 Following reciprocal coordinates:
            Coordinates               Weight
  0.000000  0.000000  0.000000      1.000000
  0.166667  0.000000  0.000000      4.000000
  0.333333  0.000000  0.000000      4.000000
  0.500000  0.000000  0.000000      2.000000
  0.166667  0.166667  0.000000      4.000000
  0.333333  0.166667  0.000000      8.000000
  0.500000  0.166667  0.000000      4.000000
  0.333333  0.333333  0.000000      4.000000
  0.500000  0.333333  0.000000      4.000000
  0.500000  0.500000  0.000000      1.000000
  0.000000  0.000000  0.333333      2.000000
  0.166667  0.000000  0.333333      8.000000
  0.333333  0.000000  0.333333      8.000000
  0.500000  0.000000  0.333333      4.000000
  0.166667  0.166667  0.333333      4.000000
  0.333333  0.166667  0.333333      8.000000
  0.500000  0.166667  0.333333      8.000000
 -0.333333  0.166667  0.333333      8.000000
 -0.166667  0.166667  0.333333      4.000000
  0.333333  0.333333  0.333333      4.000000
  0.500000  0.333333  0.333333      8.000000
 -0.333333  0.333333  0.333333      4.000000
  0.500000  0.500000  0.333333      2.000000

 Following cartesian coordinates:
            Coordinates               Weight
  0.000000  0.000000  0.000000      1.000000
  0.031072  0.000000  0.000000      4.000000
  0.062143  0.000000  0.000000      4.000000
  0.093215  0.000000  0.000000      2.000000
  0.031072  0.031072  0.000000      4.000000
  0.062143  0.031072  0.000000      8.000000
  0.093215  0.031072  0.000000      4.000000
  0.062143  0.062143  0.000000      4.000000
  0.093215  0.062143  0.000000      4.000000
  0.093215  0.093215  0.000000      1.000000
  0.000000  0.000000  0.032978      2.000000
  0.031072  0.000000  0.032978      8.000000
  0.062143  0.000000  0.032978      8.000000
  0.093215  0.000000  0.032978      4.000000
  0.031072  0.031072  0.032978      4.000000
  0.062143  0.031072  0.032978      8.000000
  0.093215  0.031072  0.032978      8.000000
 -0.062143  0.031072  0.032978      8.000000
 -0.031072  0.031072  0.032978      4.000000
  0.062143  0.062143  0.032978      4.000000
  0.093215  0.062143  0.032978      8.000000
 -0.062143  0.062143  0.032978      4.000000
  0.093215  0.093215  0.032978      2.000000

 TETIRR: Found    274 inequivalent tetrahedra from      648

 SYSTEM =  CuFeS2
 POSCAR =  sm_isp_SD0310437-standardized_unitcell

 Startparameter for this run:
   NWRITE =      2    write-flag & timer
   PREC   = accura    normal or accurate (medium, high low for compatibility)
   ISTART =      1    job   : 0-new  1-cont  2-samecut
   ICHARG =      1    charge: 1-file 2-atom 10-const
   ISPIN  =      1    spin polarized calculation?
   LNONCOLLINEAR =      T non collinear calculations
   LSORBIT =      F    spin-orbit coupling
   INIWAV =      1    electr: 0-lowe 1-rand  2-diag
   LASPH  =      T    aspherical Exc in radial PAW
   METAGGA=      F    non-selfconsistent MetaGGA calc.

 Electronic Relaxation 1
   ENCUT  =  700.0 eV  51.45 Ry    7.17 a.u.  11.57 11.57 21.81*2*pi/ulx,y,z
   ENINI  =  700.0     initial cutoff
   ENAUG  =  758.2 eV  augmentation charge cutoff
   NELM   =    200;   NELMIN=  2; NELMDL=  0     # of ELM steps
   EDIFF  = 0.1E-07   stopping-criterion for ELM
   LREAL  =      F    real-space projection
   NLSPLINE    = F    spline interpolate recip. space projectors
   LCOMPAT=      F    compatible to vasp.4.4
   GGA_COMPAT  = T    GGA compatible to vasp.4.4-vasp.4.6
   LMAXPAW     = -100 max onsite density
   LMAXMIX     =    4 max onsite mixed and CHGCAR
   VOSKOWN=      0    Vosko Wilk Nusair interpolation
   ROPT   =    0.00000   0.00000   0.00000
 Ionic relaxation
   EDIFFG = -.1E-04   stopping-criterion for IOM
   NSW    =      0    number of steps for IOM
   NBLOCK =      1;   KBLOCK =      1    inner block; outer block
   IBRION =     -1    ionic relax: 0-MD 1-quasi-New 2-CG
   NFREE  =      0    steps in history (QN), initial steepest desc. (CG)
   ISIF   =      2    stress and relaxation
   IWAVPR =     10    prediction:  0-non 1-charg 2-wave 3-comb
   ISYM   =      1    0-nonsym 1-usesym 2-fastsym
   LCORR  =      T    Harris-Foulkes like correction to forces

   POTIM  = 0.1000    time-step for ionic-motion
   TEIN   =    0.0    initial temperature
   TEBEG  =    0.0;   TEEND  =   0.0 temperature during run
   SMASS  =  -3.00    Nose mass-parameter (am)
   estimated Nose-frequenzy (Omega)   =  0.10E-29 period in steps =****** mass=  -0.658E-27a.u.
   SCALEE = 1.0000    scale energy and forces
   NPACO  =    256;   APACO  = 16.0  distance and # of slots for P.C.
   PSTRESS=    0.0 pullay stress

  Mass of Ions in am
   POMASS =  32.07 63.55 55.85
  Ionic Valenz
   ZVAL   =   6.00 17.00 14.00
  Atomic Wigner-Seitz radii
  virtual crystal weights
   VCA    =   1.00  1.00  1.00
   NELECT =     172.0000    total number of electrons
   NUPDOWN=      -1.0000    fix difference up-down

 DOS related values:
   EMIN   =  10.00;   EMAX   =-10.00  energy-range for DOS
   EFERMI =   0.00
   ISMEAR =    -5;   SIGMA  =   0.03  broadening in eV -4-tet -1-fermi 0-gaus

 Electronic relaxation 2 (details)
   IALGO  =     58    algorithm
   LDIAG  =      T    sub-space diagonalisation (order eigenvalues)
   LSUBROT=      F    optimize rotation matrix (better conditioning)
   TURBO    =      0    0=normal 1=particle mesh
   IRESTART =      0    0=no restart 2=restart with 2 vectors
   NREBOOT  =      0    no. of reboots
   NMIN     =      0    reboot dimension
   EREF     =   0.00    reference energy to select bands
   IMIX   =      4    mixing-type and parameters
     AMIX     =   0.40;   BMIX     =  1.00
     AMIX_MAG =   1.60;   BMIX_MAG =  1.00
     AMIN     =   0.10
[...]
 Maximum number of real-space cells 3x 3x 2
 Maximum number of reciprocal cells 2x 2x 4

--------------------------------------- Iteration      1(   1)  ---------------------------------------

 BZINTS: Fermi energy:  4.697533;172.000000 electrons
         Band energy:***********;  BLOECHL correction:  0.000000
 BZINTS: Fermi energy:  4.697528;172.000000 electrons
         Band energy:***********;  BLOECHL correction:  0.000000

 eigenvalue-minimisations  :     0
 total energy-change (2. order) :-0.8201216E+02  (-0.3016875E-05)
 number of electron     171.9999855 magnetization       0.0000000      0.0000000     -0.0000000
 augmentation part       70.5679960 magnetization      -0.0000003      0.0000008     -0.0002278

 Free energy of the ion-electron system (eV)
  alpha Z        PSCENC =       582.64555184
  Ewald energy   TEWEN  =    -15565.73130115
  -Hartree energ DENC   =    -10770.14464555
  -exchange      EXHF   =         0.00000000
  -V(xc)+E(xc)   XCENC  =       821.24075583
  PAW double counting   =     27945.84470852   -28868.70775823
  entropy T*S    EENTRO =         0.00000000
  eigenvalues    EBANDS =     -2732.17574601
  atomic energy  EATOM  =     28505.01627691
  free energy    TOTEN  =       -82.01215785 eV

  energy without entropy =      -82.01215785  energy(sigma->0) =      -82.01215785

[...]

 eigenvalue-minimisations  :     0
 total energy-change (2. order) : 0.5749493E-05  (-0.2189216E-06)
 number of electron     171.9999855 magnetization      -0.0000000      0.0000000     -0.0000000
 augmentation part       70.5679962 magnetization      -0.0000004      0.0000008     -0.0002278

[...]

 eigenvalue-minimisations  :     0
 total energy-change (2. order) : 0.3910627E-06  (-0.1526790E-06)
 number of electron     171.9999855 magnetization       0.0000000      0.0000000     -0.0000000
 augmentation part       70.5679963 magnetization      -0.0000004      0.0000007     -0.0002278

[...]

--------------------------------------- Iteration      1(  33)  ---------------------------------------

 BZINTS: Fermi energy:  4.697528;172.000000 electrons
         Band energy:***********;  BLOECHL correction:  0.000000
 BZINTS: Fermi energy:  4.697528;172.000000 electrons
         Band energy:***********;  BLOECHL correction:  0.000000

 eigenvalue-minimisations  :     0
 total energy-change (2. order) :-0.8318239E-08  (-0.1253902E-08)
 number of electron     171.9999855 magnetization       0.0000000      0.0000000     -0.0000000
 augmentation part       70.5679964 magnetization      -0.0000003      0.0000005     -0.0002278

 Free energy of the ion-electron system (eV)
  alpha Z        PSCENC =       582.64555184
  Ewald energy   TEWEN  =    -15565.73130115
  -Hartree energ DENC   =    -10770.14463444
  -exchange      EXHF   =         0.00000000
  -V(xc)+E(xc)   XCENC  =       821.24070813
  PAW double counting   =     27945.84561717   -28868.70866985
  entropy T*S    EENTRO =         0.00000000
  eigenvalues    EBANDS =     -2732.17574209
  atomic energy  EATOM  =     28505.01627691
  free energy    TOTEN  =       -82.01219348 eV

  energy without entropy =      -82.01219348  energy(sigma->0) =      -82.01219348

  average scaling for gradient   0.9241

 average (electrostatic) potential at core
  the test charge radii are     0.9698  0.8297  0.9500
  (the norm of the test charge is              1.0000)
       1 -86.7205       2 -86.7205       3 -86.7205       4 -86.7205       5 -86.7205
       6 -86.7205       7 -86.7205       8 -86.7205       9 -80.7581      10 -80.7581
      11 -80.7581      12 -80.7581      13 -80.3420      14 -80.3420      15 -80.3420
      16 -80.3420

 E-fermi :   4.6975     XC(G=0): -10.4149     alpha+bet :-10.4319

 k-point     1 :       0.0000    0.0000    0.0000
  band No.  band energies     occupation
      1     -64.3475      1.00000
      2     -64.3475      1.00000
      3     -64.3474      1.00000
      4     -64.3474      1.00000
      5     -64.3396      1.00000
      6     -64.3396      1.00000
      7     -64.3396      1.00000
      8     -64.3396      1.00000
      9     -64.3396      1.00000
     10     -64.3396      1.00000
     11     -64.3396      1.00000
     12     -64.3396      1.00000
     13     -64.3388      1.00000
     14     -64.3388      1.00000
     15     -64.3388      1.00000
     16     -64.3388      1.00000
     17     -64.3231      1.00000
     18     -64.3231      1.00000
     19     -64.3231      1.00000
     20     -64.3231      1.00000
     21     -64.3231      1.00000
     22     -64.3231      1.00000
     23     -64.3231      1.00000
     24     -64.3231      1.00000
     25     -52.0463      1.00000
     26     -52.0463      1.00000
     27     -52.0463      1.00000
     28     -52.0463      1.00000
     29     -51.9411      1.00000
     30     -51.9411      1.00000
     31     -51.9411      1.00000
     32     -51.9411      1.00000
     33     -51.9411      1.00000
     34     -51.9411      1.00000
     35     -51.9411      1.00000
     36     -51.9411      1.00000
     37     -47.8620      1.00000
     38     -47.8620      1.00000
     39     -47.8620      1.00000
     40     -47.8620      1.00000
     41     -47.8234      1.00000
     42     -47.8234      1.00000
     43     -47.8234      1.00000
     44     -47.8234      1.00000
     45     -47.8234      1.00000
     46     -47.8234      1.00000
     47     -47.8234      1.00000
     48     -47.8234      1.00000
     49      -9.1575      1.00000
     50      -9.1575      1.00000
     51      -8.5245      1.00000
     52      -8.5245      1.00000
     53      -8.5022      1.00000
     54      -8.5022      1.00000
     55      -7.8714      1.00000
     56      -7.8714      1.00000
     57      -7.8714      1.00000
     58      -7.8714      1.00000
     59      -7.8610      1.00000
     60      -7.8610      1.00000
[...]
    194       7.5173      0.00000
    195       8.4663      0.00000
    196       8.4663      0.00000
    197       8.7912      0.00000
    198       8.7912      0.00000
    199       8.7912      0.00000
    200       8.7912      0.00000
    201       9.1992      0.00000
    202       9.1992      0.00000
    203       9.4551      0.00000
    204       9.4551      0.00000
    205       9.6811      0.00000
    206       9.6811      0.00000
    207      10.0365      0.00000
    208      10.0365      0.00000

[...]

 k-point    23 :       0.5000    0.5000    0.3333
  band No.  band energies     occupation
      1     -64.3474      1.00000
      2     -64.3474      1.00000
      3     -64.3474      1.00000
      4     -64.3474      1.00000
      5     -64.3396      1.00000
      6     -64.3396      1.00000
      7     -64.3396      1.00000
      8     -64.3396      1.00000
      9     -64.3396      1.00000
     10     -64.3396      1.00000
     11     -64.3396      1.00000
     12     -64.3396      1.00000
     13     -64.3388      1.00000
     14     -64.3388      1.00000
     15     -64.3388      1.00000
     16     -64.3388      1.00000
     17     -64.3231      1.00000
     18     -64.3231      1.00000
     19     -64.3231      1.00000
     20     -64.3231      1.00000
     21     -64.3231      1.00000
     22     -64.3231      1.00000
     23     -64.3231      1.00000
     24     -64.3231      1.00000
     25     -52.0463      1.00000
     26     -52.0463      1.00000
     27     -52.0463      1.00000
     28     -52.0463      1.00000
     29     -51.9411      1.00000
     30     -51.9411      1.00000
     31     -51.9411      1.00000
     32     -51.9411      1.00000
     33     -51.9411      1.00000
     34     -51.9411      1.00000
     35     -51.9411      1.00000
     36     -51.9411      1.00000
     37     -47.8620      1.00000
     38     -47.8620      1.00000
     39     -47.8620      1.00000
     40     -47.8620      1.00000
     41     -47.8234      1.00000
     42     -47.8234      1.00000
     43     -47.8234      1.00000
     44     -47.8234      1.00000
     45     -47.8234      1.00000
     46     -47.8234      1.00000
     47     -47.8234      1.00000
     48     -47.8234      1.00000
     49      -8.1991      1.00000
     50      -8.1991      1.00000
     51      -8.1991      1.00000
     52      -8.1991      1.00000
     53      -8.1978      1.00000
     54      -8.1978      1.00000
     55      -8.1978      1.00000
     56      -8.1978      1.00000
     57      -8.1791      1.00000
     58      -8.1791      1.00000
     59      -8.1791      1.00000
     60      -8.1791      1.00000
[...]
    194       9.1562      0.00000
    195       9.1562      0.00000
    196       9.1562      0.00000
    197       9.4087      0.00000
    198       9.4087      0.00000
    199       9.4087      0.00000
    200       9.4087      0.00000
    201       9.8254      0.00000
    202       9.8254      0.00000
    203       9.8254      0.00000
    204       9.8254      0.00000
    205      10.2739      0.00000
    206      10.2739      0.00000
    207      10.2739      0.00000
    208      10.2739      0.00000

 soft charge-density along one line, spin component           1
         0         1         2         3         4         5         6         7         8         9
 total charge-density along one line

[...]

 soft charge-density along one line, spin component           4
         0         1         2         3         4         5         6         7         8         9
 total charge-density along one line

------------------------ aborting loop because EDIFF is reached ----------------------------------------

 total charge

# of ion       s       p       d       tot
    1        1.314   2.405   0.000   3.719
    2        1.314   2.404   0.000   3.718
    3        1.314   2.403   0.000   3.717
    4        1.314   2.403   0.000   3.717
    5        1.314   2.404   0.000   3.718
    6        1.314   2.405   0.000   3.719
    7        1.314   2.403   0.000   3.717
    8        1.314   2.403   0.000   3.717
    9        0.256   6.196   8.919  15.370
   10        0.256   6.196   8.919  15.371
   11        0.256   6.196   8.919  15.370
   12        0.256   6.196   8.919  15.371
   13        0.347   6.345   5.814  12.506
   14        0.347   6.345   5.814  12.506
   15        0.347   6.345   5.814  12.506
   16        0.347   6.345   5.814  12.506
tot         12.922  69.394  58.934 141.250

 magnetization (x)

[...]

 magnetization (y)

[...]

 magnetization (z)

[...]

  FORCE on cell =-STRESS in cart. coord.  units (eV):
  Direction    XX          YY          ZZ          XY          YZ          ZX
  Alpha Z   582.64555   582.64555   582.64555
  Ewald   -5098.61790 -5098.61790 -5368.53108     0.00000     0.00000     0.00000
  Hartree  3632.62533  3632.62533  3504.89398    -0.00000     0.00000     0.00000
  E(xc)   -1050.26758 -1050.26758 -1050.40908    -0.00000    -0.00000    -0.00000
  Local   -1407.90074 -1407.90074 -1008.17588    -0.00000    -0.00000    -0.00000
  n-local   119.85753   121.35093   118.01068    -0.19997    -0.03135    -0.02749
  augment  1181.64732  1181.64732  1177.78074     0.00000     0.00000     0.00000
  Kinetic  2032.07263  2040.97432  2043.78535    -0.81839     0.14193    -0.05581
  Fock        0.00000     0.00000     0.00000     0.00000     0.00000     0.00000
  Total      -2.74032    -2.74032     0.00027     0.00000     0.00000     0.00000
  in kB     -15.09671   -15.09671     0.00149     0.00000     0.00000     0.00000

 VOLUME and BASIS-vectors are now :
  energy-cutoff  :      700.00
  volume of cell :      290.82
      direct lattice vectors                 reciprocal lattice vectors
     5.363961369  0.000000000  0.000000000     0.186429381  0.000000000  0.000000000
     0.000000000  5.363961369  0.000000000     0.000000000  0.186429381  0.000000000
     0.000000000  0.000000000 10.107830094     0.000000000  0.000000000  0.098933202

  length of vectors
     5.363961369  5.363961369 10.107830094     0.186429381  0.186429381  0.098933202

 FORCES acting on ions:
    Electron-Ion                     Ewald-Force                    Non-Local-Force
   0.422E+02 -.221E-12 -.130E-12   -.429E+02 0.654E-12 0.568E-13   0.790E+00 0.511E-19 0.656E-18
   -.422E+02 0.426E-12 -.154E-11   0.429E+02 -.125E-11 -.284E-13   -.790E+00 -.232E-18 -.145E-17
   0.166E-12 -.422E+02 0.394E-13   0.710E-12 0.429E+02 -.426E-13   0.598E-18 -.790E+00 -.116E-17
   -.470E-13 0.422E+02 0.326E-12   -.124E-11 -.429E+02 -.426E-13   -.384E-18 0.790E+00 0.310E-18
   -.422E+02 0.293E-12 0.316E-12   0.429E+02 0.665E-12 0.142E-13   -.790E+00 -.156E-18 -.355E-18
   0.422E+02 0.161E-12 -.244E-12   -.429E+02 -.124E-11 0.995E-13   0.790E+00 0.863E-19 -.119E-18
   -.168E-12 -.422E+02 -.526E-12   -.125E-11 0.429E+02 0.568E-13   0.101E-17 -.790E+00 0.831E-18
   0.272E-13 0.422E+02 0.453E-12   0.753E-12 -.429E+02 0.568E-13   0.737E-19 0.790E+00 0.284E-18
   0.709E-12 0.318E-12 0.356E-11   0.106E-04 -.247E-04 0.000E+00   0.598E-19 0.171E-18 -.261E-17
   0.225E-11 -.350E-12 -.738E-11   -.106E-04 -.247E-04 -.813E-11   0.436E-18 0.611E-19 -.120E-17
   0.228E-11 -.534E-11 0.603E-12   -.106E-04 0.247E-04 -.568E-13   -.441E-18 0.501E-19 0.117E-17
   0.735E-12 0.128E-11 0.397E-11   0.106E-04 0.247E-04 0.797E-11   0.775E-20 0.188E-18 0.154E-17
   0.157E-12 -.360E-12 -.383E-12   -.811E-05 0.205E-04 -.568E-13   -.439E-18 0.481E-18 0.133E-17
   0.827E-12 0.371E-12 -.319E-10   0.811E-05 0.205E-04 -.624E-11   -.680E-18 0.226E-18 -.259E-17
   0.800E-12 -.440E-11 -.108E-10   0.811E-05 -.205E-04 -.171E-12   0.470E-18 0.522E-19 0.119E-17
   0.165E-12 0.102E-11 0.960E-12   -.811E-05 -.205E-04 0.642E-11   0.404E-18 0.270E-18 -.244E-17
   0.134E-10 0.651E-12 -.430E-10   -.208E-13 -.228E-13 -.848E-13   0.223E-15 0.446E-15 -.464E-17

 POSITION                                       TOTAL-FORCE (eV/Angst)
      1.35098      1.34099      1.26348        -0.000001      0.000000      0.000000
      4.01298      4.02297      1.26348         0.000001      0.000000      0.000000
      1.34099      4.01298      8.84435         0.000000      0.000001     -0.000000
      4.02297      1.35098      8.84435         0.000000     -0.000001      0.000000
      1.33100      1.34099      6.31739         0.000001      0.000000      0.000000
      4.03297      4.02297      6.31739        -0.000001      0.000000     -0.000000
      4.02297      1.33100      3.79044         0.000000      0.000001     -0.000000
      1.34099      4.03297      3.79044         0.000000     -0.000001      0.000000
      0.00000      0.00000      5.05392        -0.000000      0.000000      0.000000
      2.68198      0.00000      2.52696         0.000000      0.000000     -0.000000
      2.68198      2.68198      0.00000         0.000000     -0.000000      0.000000
      0.00000      2.68198      7.58087         0.000000      0.000000     -0.000000
      0.00000      0.00000      0.00000        -0.000000     -0.000000      0.000000
      2.68198      0.00000      7.58087        -0.000000      0.000000      0.000000
      2.68198      2.68198      5.05392        -0.000000      0.000000     -0.000000
      0.00000      2.68198      2.52696         0.000000     -0.000000     -0.000000
    total drift:                                0.000000      0.000000     -0.000000

  FREE ENERGIE OF THE ION-ELECTRON SYSTEM (eV)
  free  energy   TOTEN  =       -82.01219348 eV

  energy  without entropy=      -82.01219348  energy(sigma->0) =      -82.01219348

 writing wavefunctions

 total charge

[...]

 magnetization (x)

[...]

 magnetization (y)

[...]

 magnetization (z)

# of ion       s       p       d       tot
    1        0.000  -0.002   0.000  -0.002
    2        0.000  -0.003   0.000  -0.003
    3       -0.000   0.003   0.000   0.002
    4       -0.000   0.003   0.000   0.003
    5        0.000  -0.003   0.000  -0.003
    6        0.000  -0.002   0.000  -0.002
    7       -0.000   0.003   0.000   0.002
    8       -0.000   0.003   0.000   0.003
    9        0.000   0.001  -0.006  -0.004
   10       -0.000  -0.001   0.005   0.004
   11        0.000   0.001  -0.006  -0.004
   12       -0.000  -0.001   0.005   0.004
   13        0.020   0.054   3.677   3.751
   14       -0.020  -0.054  -3.677  -3.751
   15        0.020   0.054   3.677   3.751
   16       -0.020  -0.054  -3.677  -3.751
tot         -0.000   0.000  -0.000  -0.000

 BZINTS: Fermi energy:  4.697528;172.000000 electrons
         Band energy:***********;  BLOECHL correction:  0.000000
 BZINTS: Fermi energy:  4.697528;172.000000 electrons
         Band energy:***********;  BLOECHL correction:  0.000000
 BZINTS: Fermi energy:  4.697528;172.000000 electrons
         Band energy:***********;  BLOECHL correction:  0.000000
 BZINTS: Fermi energy:  4.697528;172.000000 electrons
         Band energy:***********;  BLOECHL correction:  0.000000