 vasp.5.4.4.18Apr17-6-g9f103f2a35 (build Oct 30 2023 17:30:16) complex

 executed on             LinuxIFC date 2024.06.30  18:44:18

 INCAR:
 POTCAR:    PAW_PBE S 06Sep2000
 POTCAR:     PAW_PBE Cu_pv 06Sep2000
 POTCAR:     PAW_PBE Fe_pv 02Aug2007

   TITEL  = PAW_PBE S 06Sep2000
   POMASS =   32.066; ZVAL   =    6.000    mass and valenz
   ENMAX  =  258.689; ENMIN  =  194.016 eV

   TITEL  = PAW_PBE Cu_pv 06Sep2000
   POMASS =   63.546; ZVAL   =   17.000    mass and valenz
   ENMAX  =  368.648; ENMIN  =  276.486 eV

   TITEL  = PAW_PBE Fe_pv 02Aug2007
   POMASS =   55.847; ZVAL   =   14.000    mass and valenz
   ENMAX  =  293.238; ENMIN  =  219.928 eV

  PAW_PBE S 06Sep2000                   :
   PAW_PBE Cu_pv 06Sep2000              :
   PAW_PBE Fe_pv 02Aug2007              :

 POSCAR: generated by phonopy
  positions in direct lattice
  velocities in cartesian coordinates
 exchange correlation table for  LEXCH =       14
   RHO(1)=    0.500       N(1)  =     2000
   RHO(2)=  100.500       N(2)  =     4000

 ion  position               nearest neighbor table
   1  0.126  0.118  0.126-  41 2.26  61 2.26  37 2.28  49 2.30
   2  0.626  0.118  0.126-  42 2.26  62 2.26  38 2.28  50 2.30
   3  0.126  0.618  0.126-  43 2.26  63 2.26  39 2.28  51 2.30
   4  0.626  0.618  0.126-  44 2.26  64 2.26  40 2.28  52 2.30
   5  0.374  0.368  0.124-  39 2.26  52 2.26  41 2.28  62 2.30
   6  0.874  0.368  0.124-  40 2.26  51 2.26  42 2.28  61 2.30
   7  0.374  0.868  0.124-  37 2.26  50 2.26  43 2.28  64 2.30
   8  0.874  0.868  0.124-  38 2.26  49 2.26  44 2.28  63 2.30
   9  0.125  0.370  0.875-  55 2.27  51 2.27  41 2.27  45 2.27
  10  0.625  0.370  0.875-  56 2.27  52 2.27  42 2.27  46 2.27
  11  0.125  0.870  0.875-  53 2.27  49 2.27  43 2.27  47 2.27
  12  0.625  0.870  0.875-  54 2.27  50 2.27  44 2.27  48 2.27
  13  0.375  0.121  0.875-  41 2.26  46 2.26  53 2.29  50 2.29
  14  0.875  0.121  0.875-  42 2.26  45 2.26  49 2.29  54 2.29
  15  0.375  0.621  0.875-  43 2.26  48 2.26  55 2.29  52 2.29
  16  0.875  0.621  0.875-  44 2.26  47 2.26  51 2.29  56 2.29
  17  0.124  0.118  0.624-  45 2.26  57 2.26  33 2.28  53 2.30
  18  0.624  0.118  0.624-  46 2.26  58 2.26  34 2.28  54 2.30
  19  0.124  0.618  0.624-  47 2.26  59 2.26  35 2.28  55 2.30
  20  0.624  0.618  0.624-  48 2.26  60 2.26  36 2.28  56 2.30
  21  0.376  0.368  0.626-  36 2.26  55 2.26  46 2.28  57 2.30
  22  0.876  0.368  0.626-  35 2.26  56 2.26  45 2.28  58 2.30
  23  0.376  0.868  0.626-  34 2.26  53 2.26  48 2.28  59 2.30
  24  0.876  0.868  0.626-  33 2.26  54 2.26  47 2.28  60 2.30
  25  0.375  0.120  0.375-  62 2.27  57 2.27  34 2.27  37 2.27
  26  0.875  0.120  0.375-  58 2.27  61 2.27  33 2.27  38 2.27
  27  0.375  0.620  0.375-  64 2.27  59 2.27  36 2.27  39 2.27
  28  0.875  0.620  0.375-  60 2.27  63 2.27  35 2.27  40 2.27
  29  0.125  0.371  0.375-  35 2.26  39 2.26  57 2.29  61 2.29
  30  0.625  0.371  0.375-  36 2.26  40 2.26  58 2.29  62 2.29
  31  0.125  0.871  0.375-  33 2.26  37 2.26  59 2.29  63 2.29
  32  0.625  0.871  0.375-  34 2.26  38 2.26  60 2.29  64 2.29
  33  0.998  0.006  0.500-  24 2.26  31 2.26  26 2.27  17 2.28
  34  0.498  0.006  0.500-  23 2.26  32 2.26  25 2.27  18 2.28
  35  0.998  0.506  0.500-  22 2.26  29 2.26  28 2.27  19 2.28
  36  0.498  0.506  0.500-  21 2.26  30 2.26  27 2.27  20 2.28
  37  0.252  0.006  0.250-   7 2.26  31 2.26  25 2.27   1 2.28
  38  0.752  0.006  0.250-   8 2.26  32 2.26  26 2.27   2 2.28
  39  0.252  0.506  0.250-   5 2.26  29 2.26  27 2.27   3 2.28
  40  0.752  0.506  0.250-   6 2.26  30 2.26  28 2.27   4 2.28
  41  0.248  0.256  1.000-   1 2.26  13 2.26   9 2.27   5 2.28
  42  0.748  0.256  1.000-   2 2.26  14 2.26  10 2.27   6 2.28
  43  0.248  0.756  1.000-   3 2.26  15 2.26  11 2.27   7 2.28
  44  0.748  0.756  1.000-   4 2.26  16 2.26  12 2.27   8 2.28
  45  0.002  0.256  0.750-  17 2.26  14 2.26   9 2.27  22 2.28
  46  0.502  0.256  0.750-  18 2.26  13 2.26  10 2.27  21 2.28
  47  0.002  0.756  0.750-  19 2.26  16 2.26  11 2.27  24 2.28
  48  0.502  0.756  0.750-  20 2.26  15 2.26  12 2.27  23 2.28
  49  0.999  0.005  0.001-   8 2.26  11 2.27  14 2.29   1 2.30
  50  0.499  0.005  0.001-   7 2.26  12 2.27  13 2.29   2 2.30
  51  0.999  0.505  0.001-   6 2.26   9 2.27  16 2.29   3 2.30
  52  0.499  0.505  0.001-   5 2.26  10 2.27  15 2.29   4 2.30
  53  0.251  0.005  0.749-  23 2.26  11 2.27  13 2.29  17 2.30
  54  0.751  0.005  0.749-  24 2.26  12 2.27  14 2.29  18 2.30
  55  0.251  0.505  0.749-  21 2.26   9 2.27  15 2.29  19 2.30
  56  0.751  0.505  0.749-  22 2.26  10 2.27  16 2.29  20 2.30
  57  0.249  0.255  0.501-  17 2.26  25 2.27  29 2.29  21 2.30
  58  0.749  0.255  0.501-  18 2.26  26 2.27  30 2.29  22 2.30
  59  0.249  0.755  0.501-  19 2.26  27 2.27  31 2.29  23 2.30
  60  0.749  0.755  0.501-  20 2.26  28 2.27  32 2.29  24 2.30
  61  0.001  0.255  0.249-   1 2.26  26 2.27  29 2.29   6 2.30
  62  0.501  0.255  0.249-   2 2.26  25 2.27  30 2.29   5 2.30
  63  0.001  0.755  0.249-   3 2.26  28 2.27  31 2.29   8 2.30
  64  0.501  0.755  0.249-   4 2.26  27 2.27  32 2.29   7 2.30

  LATTYP: Found a simple monoclinic cell.
 ALAT       =    15.5517870323
 B/A-ratio  =     0.6768310245
 C/A-ratio  =     1.5617444945
 COS(beta)  =    -0.9575535266

  Lattice vectors:

 A1 = ( -11.6041602828,   0.0000000000, -10.3538178480)
 A2 = (   0.0000000000, -10.5259319497,   0.0000000000)
 A3 = (  12.6923903898,   0.0000000000,  20.7076356960)

Analysis of symmetry for initial positions (statically):
 Subroutine PRICEL returns following result:

[...]

   4 primitive cells build up your supercell.

 Routine SETGRP: Setting up the symmetry group for a
 simple monoclinic supercell.

 Subroutine GETGRP returns: Found  2 space group operations
 (whereof  1 operations were pure point group operations)
 out of a pool of  4 trial point group operations.

The static configuration has the point symmetry C_1 .
 The point group associated with its full space group is C_2 .

Analysis of symmetry for dynamics (positions and initial velocities):
 Subroutine PRICEL returns following result:

[...]

The dynamic configuration has the point symmetry C_1 .
 The point group associated with its full space group is C_2 .

Analysis of structural, dynamic, and magnetic symmetry:
 Subroutine PRICEL returns following result:

  LATTYP: Found a simple monoclinic cell.
 ALAT       =    12.1439588883
 B/A-ratio  =     0.4333814058
 C/A-ratio  =     1.8117441646
 COS(beta)  =    -0.9790226426

  Lattice vectors:

 A1 = (  -6.3461951949,   0.0000000000, -10.3538178480)
 A2 = (   0.0000000000,  -5.2629659748,   0.0000000000)
 A3 = (   7.4344253019,   0.0000000000,  20.7076356960)

   4 primitive cells build up your supercell.

 Routine SETGRP: Setting up the symmetry group for a
 simple monoclinic supercell.

 Subroutine GETGRP returns: Found  2 space group operations
 (whereof  1 operations were pure point group operations)
 out of a pool of  4 trial point group operations.

The magnetic configuration has the point symmetry C_1 .
 The point group associated with its full space group is C_2 .

 Subroutine INISYM returns: Found  2 space group operations
 (whereof  1 operations are pure point group operations),
 and found     4 'primitive' translations

 KPOINTS: Automatic mesh

Automatic generation of k-mesh.
Space group operators:
 irot       det(A)        alpha          n_x          n_y          n_z        tau_x        tau_y        tau_z
    1     1.000000     0.000001     1.000000     0.000000     0.000000     0.000000     0.000000     0.000000
    2     1.000000   179.999999     0.000000     1.000000     0.000000    -0.250000     0.000000    -0.250000

 Subroutine IBZKPT returns following result:

 Found      8 irreducible k-points:

 Following reciprocal coordinates:
            Coordinates               Weight
  0.000000  0.000000  0.000000      1.000000
  0.500000  0.000000 -0.000000      1.000000
  0.000000  0.500000  0.000000      1.000000
  0.500000  0.500000 -0.000000      1.000000
  0.000000  0.000000  0.500000      1.000000
  0.500000  0.000000  0.500000      1.000000
  0.000000  0.500000  0.500000      1.000000
  0.500000  0.500000  0.500000      1.000000

 Following cartesian coordinates:
            Coordinates               Weight
  0.000000  0.000000  0.000000      1.000000
  0.047547  0.000000 -0.004997      1.000000
  0.000000  0.047502  0.000000      1.000000
  0.047547  0.047502 -0.004997      1.000000
  0.000000  0.000000  0.048291      1.000000
  0.047547  0.000000  0.043294      1.000000
  0.000000  0.047502  0.048291      1.000000
  0.047547  0.047502  0.043294      1.000000

 TETIRR: Found     24 inequivalent tetrahedra from       48

 Subroutine IBZKPT_HF returns following result:

 Found      8 k-points in 1st BZ
 the following      8 k-points will be used (e.g. in the exchange kernel)
 Following reciprocal coordinates:   # in IRBZ
  0.000000  0.000000  0.000000    0.12500000   1 t-inv F
  0.500000  0.000000 -0.000000    0.12500000   2 t-inv F
  0.000000  0.500000  0.000000    0.12500000   3 t-inv F
  0.500000  0.500000 -0.000000    0.12500000   4 t-inv F
  0.000000  0.000000  0.500000    0.12500000   5 t-inv F
  0.500000  0.000000  0.500000    0.12500000   6 t-inv F
  0.000000  0.500000  0.500000    0.12500000   7 t-inv F
  0.500000  0.500000  0.500000    0.12500000   8 t-inv F

 SYSTEM =  CuFeS2
 POSCAR =  generated by phonopy

 Startparameter for this run:
   NWRITE =      2    write-flag & timer
   PREC   = accura    normal or accurate (medium, high low for compatibility)
   ISTART =      0    job   : 0-new  1-cont  2-samecut
   ICHARG =      1    charge: 1-file 2-atom 10-const
   ISPIN  =      2    spin polarized calculation?
   LNONCOLLINEAR =      F non collinear calculations
   LSORBIT =      F    spin-orbit coupling
   INIWAV =      1    electr: 0-lowe 1-rand  2-diag
   LASPH  =      F    aspherical Exc in radial PAW
   METAGGA=      F    non-selfconsistent MetaGGA calc.

 Electronic Relaxation 1
   ENCUT  =  700.0 eV  51.45 Ry    7.17 a.u.  22.69 22.71 22.46*2*pi/ulx,y,z
   ENINI  =  700.0     initial cutoff
   ENAUG  =  758.2 eV  augmentation charge cutoff
   NELM   =    500;   NELMIN=  2; NELMDL= -5     # of ELM steps
   EDIFF  = 0.1E-07   stopping-criterion for ELM
   LREAL  =      F    real-space projection
   NLSPLINE    = F    spline interpolate recip. space projectors
   LCOMPAT=      F    compatible to vasp.4.4
   GGA_COMPAT  = T    GGA compatible to vasp.4.4-vasp.4.6
   LMAXPAW     = -100 max onsite density
   LMAXMIX     =    4 max onsite mixed and CHGCAR
   VOSKOWN=      0    Vosko Wilk Nusair interpolation
   ROPT   =    0.00000   0.00000   0.00000
 Ionic relaxation
   EDIFFG = -.1E-04   stopping-criterion for IOM
   NSW    =      0    number of steps for IOM
   NBLOCK =      1;   KBLOCK =      1    inner block; outer block
   IBRION =     -1    ionic relax: 0-MD 1-quasi-New 2-CG
   NFREE  =      0    steps in history (QN), initial steepest desc. (CG)
   ISIF   =      2    stress and relaxation
   IWAVPR =     10    prediction:  0-non 1-charg 2-wave 3-comb
   ISYM   =      2    0-nonsym 1-usesym 2-fastsym
[...]
   0.407E+02 0.371E+02 0.704E+00   -.415E+02 -.373E+02 -.698E+00   0.802E+00 0.246E+00 -.610E-02   -.368E-03 0.667E-04 0.284E-04
   -.407E+02 0.371E+02 -.704E+00   0.415E+02 -.373E+02 0.698E+00   -.802E+00 0.246E+00 0.609E-02   0.368E-03 0.161E-04 0.447E-04
   -.407E+02 0.371E+02 -.704E+00   0.415E+02 -.373E+02 0.698E+00   -.802E+00 0.246E+00 0.609E-02   0.368E-03 0.160E-04 0.447E-04
   -.407E+02 0.371E+02 -.704E+00   0.415E+02 -.373E+02 0.698E+00   -.802E+00 0.246E+00 0.609E-02   0.368E-03 0.160E-04 0.468E-04
   -.407E+02 0.371E+02 -.704E+00   0.415E+02 -.373E+02 0.698E+00   -.802E+00 0.246E+00 0.609E-02   0.368E-03 0.160E-04 0.468E-04
   -.182E-06 -.155E+02 0.213E-07   -.132E-05 0.162E+02 0.265E-06   -.186E-23 -.637E+00 0.496E-23   0.644E-06 0.378E-03 -.898E-07
   0.101E-06 -.155E+02 -.288E-07   0.758E-06 0.162E+02 -.101E-06   -.331E-23 -.637E+00 -.331E-23   -.509E-06 0.378E-03 0.617E-07
   -.182E-06 -.155E+02 0.213E-07   -.132E-05 0.162E+02 0.265E-06   -.558E-23 -.637E+00 -.165E-23   0.644E-06 0.378E-03 -.898E-07
   0.101E-06 -.155E+02 -.288E-07   0.758E-06 0.162E+02 -.101E-06   -.393E-23 -.637E+00 -.662E-23   -.509E-06 0.378E-03 0.617E-07
   0.874E-08 0.695E+02 -.739E-06   0.280E-06 -.706E+02 -.397E-05   -.165E-23 0.106E+01 0.000E+00   0.143E-06 -.304E-03 0.107E-05
   0.848E-07 0.695E+02 0.286E-06   0.833E-06 -.706E+02 0.357E-05   -.265E-22 0.106E+01 0.000E+00   -.334E-06 -.304E-03 -.103E-05
   0.874E-08 0.695E+02 -.739E-06   0.280E-06 -.706E+02 -.397E-05   -.314E-22 0.106E+01 0.000E+00   0.143E-06 -.308E-03 0.107E-05
   0.848E-07 0.695E+02 0.286E-06   0.833E-06 -.706E+02 0.357E-05   -.993E-23 0.106E+01 0.000E+00   -.334E-06 -.308E-03 -.103E-05
   -.407E+02 0.371E+02 -.704E+00   0.415E+02 -.373E+02 0.698E+00   -.802E+00 0.246E+00 0.610E-02   0.366E-03 0.679E-04 -.287E-04
   -.407E+02 0.371E+02 -.704E+00   0.415E+02 -.373E+02 0.698E+00   -.802E+00 0.246E+00 0.610E-02   0.367E-03 0.679E-04 -.283E-04
   -.407E+02 0.371E+02 -.704E+00   0.415E+02 -.373E+02 0.698E+00   -.802E+00 0.246E+00 0.610E-02   0.366E-03 0.667E-04 -.287E-04
   -.407E+02 0.371E+02 -.704E+00   0.415E+02 -.373E+02 0.698E+00   -.802E+00 0.246E+00 0.610E-02   0.367E-03 0.667E-04 -.283E-04
   0.407E+02 0.371E+02 0.704E+00   -.415E+02 -.373E+02 -.698E+00   0.802E+00 0.246E+00 -.609E-02   -.368E-03 0.160E-04 -.447E-04
   0.407E+02 0.371E+02 0.704E+00   -.415E+02 -.373E+02 -.698E+00   0.802E+00 0.246E+00 -.609E-02   -.368E-03 0.161E-04 -.447E-04
   0.407E+02 0.371E+02 0.704E+00   -.415E+02 -.373E+02 -.698E+00   0.802E+00 0.246E+00 -.609E-02   -.368E-03 0.160E-04 -.468E-04
   0.407E+02 0.371E+02 0.704E+00   -.415E+02 -.373E+02 -.698E+00   0.802E+00 0.246E+00 -.609E-02   -.368E-03 0.160E-04 -.468E-04
   0.107E-06 -.155E+02 0.479E-06   0.808E-06 0.162E+02 0.363E-05   -.165E-23 -.637E+00 0.000E+00   -.304E-06 0.429E-03 -.104E-05
   0.454E-07 -.155E+02 -.558E-06   0.344E-06 0.162E+02 -.400E-05   0.000E+00 -.637E+00 0.000E+00   0.108E-06 0.429E-03 0.108E-05
   0.107E-06 -.155E+02 0.479E-06   0.808E-06 0.162E+02 0.363E-05   0.199E-22 -.637E+00 0.000E+00   -.304E-06 0.430E-03 -.104E-05
   0.454E-07 -.155E+02 -.558E-06   0.344E-06 0.162E+02 -.400E-05   0.116E-22 -.637E+00 0.000E+00   0.108E-06 0.430E-03 0.108E-05
   -.212E-06 0.695E+02 -.166E-06   -.135E-05 -.706E+02 0.242E-06   0.414E-23 0.106E+01 -.132E-22   0.651E-06 -.354E-03 -.832E-07
   0.749E-07 0.695E+02 -.212E-06   0.763E-06 -.706E+02 -.931E-07   0.548E-23 0.106E+01 -.165E-23   -.512E-06 -.354E-03 0.577E-07
   -.212E-06 0.695E+02 -.166E-06   -.135E-05 -.706E+02 0.242E-06   0.827E-24 0.106E+01 0.265E-22   0.651E-06 -.354E-03 -.832E-07
   0.749E-07 0.695E+02 -.212E-06   0.763E-06 -.706E+02 -.931E-07   0.258E-23 0.106E+01 -.579E-23   -.512E-06 -.354E-03 0.576E-07
   0.662E+01 -.342E+02 0.241E+01   -.656E+01 0.329E+02 -.247E+01   -.622E-01 0.137E+01 0.611E-01   -.544E-04 0.834E-04 -.100E-03
   0.662E+01 -.342E+02 0.241E+01   -.656E+01 0.329E+02 -.247E+01   -.622E-01 0.137E+01 0.611E-01   -.549E-04 0.827E-04 -.103E-03
   0.662E+01 -.342E+02 0.241E+01   -.656E+01 0.329E+02 -.247E+01   -.622E-01 0.137E+01 0.611E-01   -.538E-04 0.836E-04 -.972E-04
   0.662E+01 -.342E+02 0.241E+01   -.656E+01 0.329E+02 -.247E+01   -.622E-01 0.137E+01 0.611E-01   -.542E-04 0.829E-04 -.999E-04
   -.662E+01 -.342E+02 -.241E+01   0.656E+01 0.329E+02 0.247E+01   0.622E-01 0.137E+01 -.611E-01   0.567E-04 0.840E-04 0.994E-04
   -.662E+01 -.342E+02 -.241E+01   0.656E+01 0.329E+02 0.247E+01   0.622E-01 0.137E+01 -.611E-01   0.523E-04 0.825E-04 0.103E-03
   -.662E+01 -.342E+02 -.241E+01   0.656E+01 0.329E+02 0.247E+01   0.622E-01 0.137E+01 -.611E-01   0.561E-04 0.843E-04 0.963E-04
   -.662E+01 -.342E+02 -.241E+01   0.656E+01 0.329E+02 0.247E+01   0.622E-01 0.137E+01 -.611E-01   0.516E-04 0.828E-04 0.100E-03
   0.662E+01 -.342E+02 0.241E+01   -.656E+01 0.329E+02 -.247E+01   -.623E-01 0.137E+01 0.610E-01   -.129E-04 0.910E-04 0.415E-04
   0.662E+01 -.342E+02 0.241E+01   -.656E+01 0.329E+02 -.247E+01   -.623E-01 0.137E+01 0.610E-01   -.192E-04 0.923E-04 0.376E-04
   0.662E+01 -.342E+02 0.241E+01   -.656E+01 0.329E+02 -.247E+01   -.623E-01 0.137E+01 0.610E-01   -.143E-04 0.861E-04 0.457E-04
   0.662E+01 -.342E+02 0.241E+01   -.656E+01 0.329E+02 -.247E+01   -.623E-01 0.137E+01 0.610E-01   -.207E-04 0.874E-04 0.418E-04
   -.662E+01 -.342E+02 -.241E+01   0.656E+01 0.329E+02 0.247E+01   0.623E-01 0.137E+01 -.610E-01   0.155E-04 0.916E-04 -.412E-04
   -.662E+01 -.342E+02 -.241E+01   0.656E+01 0.329E+02 0.247E+01   0.623E-01 0.137E+01 -.610E-01   0.166E-04 0.922E-04 -.374E-04
   -.662E+01 -.342E+02 -.241E+01   0.656E+01 0.329E+02 0.247E+01   0.623E-01 0.137E+01 -.610E-01   0.170E-04 0.867E-04 -.454E-04
   -.662E+01 -.342E+02 -.241E+01   0.656E+01 0.329E+02 0.247E+01   0.623E-01 0.137E+01 -.610E-01   0.181E-04 0.873E-04 -.417E-04
   -.917E+01 -.335E+02 0.447E+01   0.900E+01 0.317E+02 -.455E+01   0.176E+00 0.179E+01 0.829E-01   0.232E-03 -.828E-04 -.155E-03
   -.917E+01 -.335E+02 0.447E+01   0.900E+01 0.317E+02 -.455E+01   0.176E+00 0.179E+01 0.829E-01   0.228E-03 -.817E-04 -.152E-03
   -.917E+01 -.335E+02 0.447E+01   0.900E+01 0.317E+02 -.455E+01   0.176E+00 0.179E+01 0.829E-01   0.231E-03 -.874E-04 -.158E-03
   -.917E+01 -.335E+02 0.447E+01   0.900E+01 0.317E+02 -.455E+01   0.176E+00 0.179E+01 0.829E-01   0.227E-03 -.862E-04 -.155E-03
   0.917E+01 -.335E+02 -.447E+01   -.900E+01 0.317E+02 0.455E+01   -.176E+00 0.179E+01 -.829E-01   -.230E-03 -.823E-04 0.155E-03
   0.917E+01 -.335E+02 -.447E+01   -.900E+01 0.317E+02 0.455E+01   -.176E+00 0.179E+01 -.829E-01   -.230E-03 -.818E-04 0.153E-03
   0.917E+01 -.335E+02 -.447E+01   -.900E+01 0.317E+02 0.455E+01   -.176E+00 0.179E+01 -.829E-01   -.229E-03 -.869E-04 0.158E-03
   0.917E+01 -.335E+02 -.447E+01   -.900E+01 0.317E+02 0.455E+01   -.176E+00 0.179E+01 -.829E-01   -.229E-03 -.863E-04 0.156E-03
   -.917E+01 -.335E+02 0.447E+01   0.900E+01 0.317E+02 -.455E+01   0.176E+00 0.179E+01 0.829E-01   0.219E-03 -.532E-04 -.205E-03
   -.917E+01 -.335E+02 0.447E+01   0.900E+01 0.317E+02 -.455E+01   0.176E+00 0.179E+01 0.829E-01   0.220E-03 -.537E-04 -.202E-03
   -.917E+01 -.335E+02 0.447E+01   0.900E+01 0.317E+02 -.455E+01   0.176E+00 0.179E+01 0.829E-01   0.220E-03 -.532E-04 -.208E-03
   -.917E+01 -.335E+02 0.447E+01   0.900E+01 0.317E+02 -.455E+01   0.176E+00 0.179E+01 0.829E-01   0.221E-03 -.537E-04 -.205E-03
   0.917E+01 -.335E+02 -.447E+01   -.900E+01 0.317E+02 0.455E+01   -.176E+00 0.179E+01 -.829E-01   -.217E-03 -.528E-04 0.205E-03
   0.917E+01 -.335E+02 -.447E+01   -.900E+01 0.317E+02 0.455E+01   -.176E+00 0.179E+01 -.829E-01   -.222E-03 -.538E-04 0.202E-03
   0.917E+01 -.335E+02 -.447E+01   -.900E+01 0.317E+02 0.455E+01   -.176E+00 0.179E+01 -.829E-01   -.218E-03 -.527E-04 0.208E-03
   0.917E+01 -.335E+02 -.447E+01   -.900E+01 0.317E+02 0.455E+01   -.176E+00 0.179E+01 -.829E-01   -.223E-03 -.538E-04 0.205E-03
   -.483E-04 -.578E+02 0.146E-03   0.149E-12 -.409E-12 0.624E-12   -.147E-14 0.578E+02 -.139E-16   -.169E-06 0.154E-02 -.139E-06

 POSITION                                       TOTAL-FORCE (eV/Angst)
      1.46639      1.24528      1.30465        -0.000265     -0.000487      0.000113
      6.72436      1.24528      1.30465        -0.000265     -0.000487      0.000113
      1.46639      6.50824      1.30465        -0.000265     -0.000487      0.000113
      6.72436      6.50824      1.30465        -0.000265     -0.000487      0.000113
      4.06363      3.87676      1.28380         0.000264     -0.000485     -0.000115
      9.32160      3.87676      1.28380         0.000264     -0.000485     -0.000115
      4.06363      9.13972      1.28380         0.000264     -0.000485     -0.000115
      9.32160      9.13972      1.28380         0.000264     -0.000485     -0.000115
      2.26669      3.89298      9.05959         0.000000     -0.000081      0.000000
      7.52466      3.89298      9.05959         0.000000     -0.000081      0.000000
      2.26669      9.15595      9.05959         0.000000     -0.000081      0.000000
      7.52466      9.15595      9.05959         0.000000     -0.000081      0.000000
      4.89568      1.27864      9.05959         0.000000     -0.000123      0.000000
     10.15364      1.27864      9.05959         0.000000     -0.000123      0.000000
      4.89568      6.54160      9.05959         0.000000     -0.000123      0.000000
     10.15364      6.54160      9.05959         0.000000     -0.000123      0.000000
      1.97876      1.24528      6.46071         0.000265     -0.000487     -0.000113
      7.23673      1.24528      6.46071         0.000265     -0.000487     -0.000113
      1.97876      6.50824      6.46071         0.000265     -0.000487     -0.000113
      7.23673      6.50824      6.46071         0.000265     -0.000487     -0.000113
      4.63949      3.87676      6.48156        -0.000264     -0.000485      0.000115
      9.89745      3.87676      6.48156        -0.000264     -0.000485      0.000115
      4.63949      9.13972      6.48156        -0.000264     -0.000485      0.000115
      9.89745      9.13972      6.48156        -0.000264     -0.000485      0.000115
      4.35156      1.26150      3.88268         0.000000     -0.000081      0.000000
      9.60953      1.26150      3.88268         0.000000     -0.000081      0.000000
      4.35156      6.52446      3.88268         0.000000     -0.000081      0.000000
      9.60953      6.52446      3.88268         0.000000     -0.000081      0.000000
      1.72258      3.91012      3.88268         0.000000     -0.000121      0.000000
      6.98054      3.91012      3.88268         0.000000     -0.000121      0.000000
      1.72258      9.17309      3.88268         0.000000     -0.000121      0.000000
      6.98054      9.17309      3.88268         0.000000     -0.000121      0.000000
     11.03551      0.05909      5.17685        -0.000929     -0.000362      0.000214
      5.77755      0.05909      5.17685        -0.000929     -0.000362      0.000214
     11.03551      5.32206      5.17685        -0.000929     -0.000362      0.000214
      5.77755      5.32206      5.17685        -0.000929     -0.000362      0.000214
      2.92557      0.05909      2.58852         0.000929     -0.000362     -0.000214
      8.18354      0.05909      2.58852         0.000929     -0.000362     -0.000214
      2.92557      5.32206      2.58852         0.000929     -0.000362     -0.000214
      8.18354      5.32206      2.58852         0.000929     -0.000362     -0.000214
      3.69268      2.69057     10.35376        -0.000929     -0.000361      0.000214
      8.95065      2.69057     10.35376        -0.000929     -0.000361      0.000214
      3.69268      7.95354     10.35376        -0.000929     -0.000361      0.000214
      8.95065      7.95354     10.35376        -0.000929     -0.000361      0.000214
      0.84070      2.69057      7.76543         0.000929     -0.000361     -0.000214
      6.09867      2.69057      7.76543         0.000929     -0.000361     -0.000214
      0.84070      7.95354      7.76543         0.000929     -0.000361     -0.000214
      6.09867      7.95354      7.76543         0.000929     -0.000361     -0.000214
     10.50277      0.05705      0.00690        -0.000192      0.000946      0.000261
      5.24481      0.05705      0.00690        -0.000192      0.000946      0.000261
     10.50277      5.32002      0.00690        -0.000192      0.000946      0.000261
      5.24481      5.32002      0.00690        -0.000192      0.000946      0.000261
      3.45831      0.05705      7.75847         0.000192      0.000946     -0.000261
      8.71628      0.05705      7.75847         0.000192      0.000946     -0.000261
      3.45831      5.32002      7.75847         0.000192      0.000946     -0.000261
      8.71628      5.32002      7.75847         0.000192      0.000946     -0.000261
      3.15994      2.68853      5.18381        -0.000187      0.000951      0.000255
      8.41790      2.68853      5.18381        -0.000187      0.000951      0.000255
      3.15994      7.95150      5.18381        -0.000187      0.000951      0.000255
      8.41790      7.95150      5.18381        -0.000187      0.000951      0.000255
      0.28522      2.68853      2.58156         0.000187      0.000951     -0.000255
      5.54318      2.68853      2.58156         0.000187      0.000951     -0.000255
      0.28522      7.95150      2.58156         0.000187      0.000951     -0.000255
      5.54318      7.95150      2.58156         0.000187      0.000951     -0.000255
    total drift:                               -0.000049     -0.014913      0.000146

  FREE ENERGIE OF THE ION-ELECTRON SYSTEM (eV)
  free  energy   TOTEN  =      -326.94575453 eV

  energy  without entropy=     -326.94575453  energy(sigma->0) =     -326.94575453

 writing wavefunctions

 total charge

[...]

 magnetization (x)

# of ion       s       p       d       tot
    1       -0.000  -0.025   0.000  -0.026
    2       -0.000  -0.025   0.000  -0.026
    3       -0.000  -0.025   0.000  -0.026
    4       -0.000  -0.025   0.000  -0.026
    5        0.000   0.025   0.000   0.026
    6        0.000   0.025   0.000   0.026
    7        0.000   0.025   0.000   0.026
    8        0.000   0.025   0.000   0.026
    9        0.000  -0.000   0.000  -0.000
   10       -0.000   0.000   0.000   0.000
   11        0.000  -0.000   0.000  -0.000
   12       -0.000   0.000   0.000   0.000
   13       -0.000   0.000   0.000   0.000
   14        0.000  -0.000   0.000  -0.000
   15       -0.000   0.000   0.000   0.000
   16        0.000  -0.000   0.000  -0.000
   17        0.000   0.025   0.000   0.026
   18        0.000   0.025   0.000   0.026
   19        0.000   0.025   0.000   0.026
   20        0.000   0.025   0.000   0.026
   21       -0.000  -0.025   0.000  -0.026
   22       -0.000  -0.025   0.000  -0.026
   23       -0.000  -0.025   0.000  -0.026
   24       -0.000  -0.025   0.000  -0.026
   25        0.000  -0.000   0.000  -0.000
   26       -0.000   0.000   0.000   0.000
   27        0.000  -0.000   0.000  -0.000
   28       -0.000   0.000   0.000   0.000
   29       -0.000   0.000   0.000   0.000
   30        0.000  -0.000   0.000  -0.000
   31       -0.000   0.000   0.000   0.000
   32        0.000  -0.000   0.000  -0.000
   33        0.000   0.001  -0.004  -0.002
   34        0.000   0.001  -0.004  -0.002
   35        0.000   0.001  -0.004  -0.002
   36        0.000   0.001  -0.004  -0.002
   37       -0.000  -0.001   0.004   0.002
   38       -0.000  -0.001   0.004   0.002
   39       -0.000  -0.001   0.004   0.002
   40       -0.000  -0.001   0.004   0.002
   41        0.000   0.001  -0.004  -0.002
   42        0.000   0.001  -0.004  -0.002
   43        0.000   0.001  -0.004  -0.002
   44        0.000   0.001  -0.004  -0.002
   45       -0.000  -0.001   0.004   0.002
   46       -0.000  -0.001   0.004   0.002
   47       -0.000  -0.001   0.004   0.002
   48       -0.000  -0.001   0.004   0.002
   49        0.020   0.054   3.665   3.739
   50        0.020   0.054   3.665   3.739
   51        0.020   0.054   3.665   3.739
   52        0.020   0.054   3.665   3.739
   53       -0.020  -0.054  -3.665  -3.739
   54       -0.020  -0.054  -3.665  -3.739
   55       -0.020  -0.054  -3.665  -3.739
   56       -0.020  -0.054  -3.665  -3.739
   57        0.020   0.054   3.665   3.739
   58        0.020   0.054   3.665   3.739
   59        0.020   0.054   3.665   3.739
   60        0.020   0.054   3.665   3.739
   61       -0.020  -0.054  -3.665  -3.739
   62       -0.020  -0.054  -3.665  -3.739
   63       -0.020  -0.054  -3.665  -3.739
   64       -0.020  -0.054  -3.665  -3.739
tot          0.000  -0.000   0.000   0.000

 BZINTS: Fermi energy:  5.025969;688.000000 electrons
         Band energy:***********;  BLOECHL correction:  0.000000