 vasp.5.4.4.18Apr17-6-g9f103f2a35 (build Oct 30 2023 17:49:44) complex

 executed on             LinuxIFC date 2024.12.09  11:02:30

 INCAR:
 POTCAR:    PAW_PBE S 06Sep2000
 POTCAR:     PAW_PBE Cu_pv 06Sep2000
 POTCAR:     PAW_PBE Fe_pv 02Aug2007
 POTCAR:    PAW_PBE S 06Sep2000
   VRHFIN =S : s2p4

   TITEL  = PAW_PBE S 06Sep2000
   POMASS =   32.066; ZVAL   =    6.000    mass and valenz
   ENMAX  =  258.689; ENMIN  =  194.016 eV

   TITEL  = PAW_PBE Cu_pv 06Sep2000
   POMASS =   63.546; ZVAL   =   17.000    mass and valenz
   ENMAX  =  368.648; ENMIN  =  276.486 eV

   TITEL  = PAW_PBE Fe_pv 02Aug2007
   POMASS =   55.847; ZVAL   =   14.000    mass and valenz
   ENMAX  =  293.238; ENMIN  =  219.928 eV

  PAW_PBE S 06Sep2000                   :
   PAW_PBE Cu_pv 06Sep2000              :
   PAW_PBE Fe_pv 02Aug2007              :

 POSCAR: sm_isp_SD0310437-standardized_unitcell
  positions in direct lattice
  velocities in cartesian coordinates
 exchange correlation table for  LEXCH =       14
   RHO(1)=    0.500       N(1)  =     2000
   RHO(2)=  100.500       N(2)  =     4000

 ion  position               nearest neighbor table
   1  0.252  0.250  0.125-  10 2.29  11 2.29  13 2.30  16 2.30
   2  0.748  0.750  0.125-  10 2.29  11 2.29  13 2.30  16 2.30
   3  0.250  0.748  0.875-  11 2.28  12 2.28  13 2.29  14 2.29
   4  0.750  0.252  0.875-  11 2.28  12 2.28  13 2.29  14 2.29
   5  0.248  0.250  0.625-   9 2.29  12 2.29  14 2.30  15 2.30
   6  0.752  0.750  0.625-   9 2.29  12 2.29  14 2.30  15 2.30
   7  0.750  0.248  0.375-   9 2.28  10 2.28  15 2.29  16 2.29
   8  0.250  0.752  0.375-   9 2.28  10 2.28  15 2.29  16 2.29
   9  0.000  0.000  0.500-   7 2.28   8 2.28   5 2.29   6 2.29
  10  0.500  0.000  0.250-   7 2.28   8 2.28   1 2.29   2 2.29
  11  0.500  0.500  1.000-   4 2.28   3 2.28   1 2.29   2 2.29
  12  0.000  0.500  0.750-   4 2.28   3 2.28   5 2.29   6 2.29
  13  0.000  0.000  1.000-   3 2.29   4 2.29   2 2.30   1 2.30
  14  0.500  0.000  0.750-   3 2.29   4 2.29   6 2.30   5 2.30
  15  0.500  0.500  0.500-   8 2.29   7 2.29   6 2.30   5 2.30
  16  0.000  0.500  0.250-   8 2.29   7 2.29   2 2.30   1 2.30

  LATTYP: Found a simple orthorhombic cell.
 ALAT       =     4.9734384990
 B/A-ratio  =     1.0996691892
 C/A-ratio  =     2.1764958260

  Lattice vectors:

 A1 = (   0.0000000000,  -4.9734384990,   0.0000000000)
 A2 = (  -5.4691370817,   0.0000000000,   0.0000000000)
 A3 = (   0.0000000000,   0.0000000000, -10.8246681341)

Analysis of symmetry for initial positions (statically):
 Subroutine PRICEL returns following result:

  LATTYP: Found a body centered orthorhombic cell.
 ALAT       =     4.9734384990
 B/A-ratio  =     1.0996691892
 C/A-ratio  =     2.1764958260

[...]

   2 primitive cells build up your supercell.

 Routine SETGRP: Setting up the symmetry group for a
 simple orthorhombic supercell.

 Subroutine GETGRP returns: Found  4 space group operations
 (whereof  2 operations were pure point group operations)
 out of a pool of  8 trial point group operations.

The static configuration has the point symmetry C_2 .
 The point group associated with its full space group is D_2 .

Analysis of symmetry for dynamics (positions and initial velocities):
 Subroutine PRICEL returns following result:

[...]

The dynamic configuration has the point symmetry C_2 .
 The point group associated with its full space group is D_2 .

Analysis of structural, dynamic, and magnetic symmetry:
 Subroutine PRICEL returns following result:

  LATTYP: Found a body centered orthorhombic cell.
 ALAT       =     4.9734384990
 B/A-ratio  =     1.0996691892
 C/A-ratio  =     2.1764958260

  Lattice vectors:

 A1 = (  -2.7345685409,  -2.4867192495,   5.4123340670)
 A2 = (   2.7345685409,   2.4867192495,   5.4123340670)
 A3 = (  -2.7345685409,   2.4867192495,  -5.4123340670)

   2 primitive cells build up your supercell.

 Routine SETGRP: Setting up the symmetry group for a
 simple orthorhombic supercell.

 Subroutine GETGRP returns: Found  4 space group operations
 (whereof  2 operations were pure point group operations)
 out of a pool of  8 trial point group operations.

The (compounded) configuration has the point symmetry C_2 .
 The point group associated with its full space group is D_2 .

 Subroutine INISYM returns: Found  4 space group operations
 (whereof  2 operations are pure point group operations),
 and found     2 'primitive' translations

 KPOINTS: Automatic mesh

Automatic generation of k-mesh.
Space group operators:
 irot       det(A)        alpha          n_x          n_y          n_z        tau_x        tau_y        tau_z
    1     1.000000     0.000001     1.000000     0.000000     0.000000     0.000000     0.000000     0.000000
    2     1.000000   180.000000     0.000000     0.000000     1.000000     0.000000     0.000000     0.000000
    3     1.000000   179.999999     1.000000     0.000000     0.000000     0.000000     0.500000     0.250000
    4     1.000000   180.000000     0.000000     1.000000     0.000000     0.000000     0.500000     0.250000

 Subroutine IBZKPT returns following result:

 Found     36 irreducible k-points:

 Following reciprocal coordinates:
            Coordinates               Weight
  0.000000  0.000000  0.000000      1.000000
  0.166667  0.000000  0.000000      2.000000
  0.333333  0.000000  0.000000      2.000000
  0.500000  0.000000  0.000000      1.000000
  0.000000  0.166667  0.000000      2.000000
  0.166667  0.166667  0.000000      4.000000
  0.333333  0.166667  0.000000      4.000000
  0.500000  0.166667  0.000000      2.000000
  0.000000  0.333333  0.000000      2.000000
  0.166667  0.333333  0.000000      4.000000
  0.333333  0.333333  0.000000      4.000000
  0.500000  0.333333  0.000000      2.000000
  0.000000  0.500000  0.000000      1.000000
  0.166667  0.500000  0.000000      2.000000
  0.333333  0.500000  0.000000      2.000000
  0.500000  0.500000  0.000000      1.000000
  0.000000  0.000000  0.333333      2.000000
  0.166667  0.000000  0.333333      4.000000
  0.333333  0.000000  0.333333      4.000000
  0.500000  0.000000  0.333333      2.000000
  0.000000  0.166667  0.333333      4.000000
  0.166667  0.166667  0.333333      4.000000
  0.333333  0.166667  0.333333      4.000000
  0.500000  0.166667  0.333333      4.000000
 -0.333333  0.166667  0.333333      4.000000
 -0.166667  0.166667  0.333333      4.000000
  0.000000  0.333333  0.333333      4.000000
  0.166667  0.333333  0.333333      4.000000
  0.333333  0.333333  0.333333      4.000000
  0.500000  0.333333  0.333333      4.000000
 -0.333333  0.333333  0.333333      4.000000
 -0.166667  0.333333  0.333333      4.000000
  0.000000  0.500000  0.333333      2.000000
  0.166667  0.500000  0.333333      4.000000
  0.333333  0.500000  0.333333      4.000000
  0.500000  0.500000  0.333333      2.000000

 Following cartesian coordinates:
            Coordinates               Weight
  0.000000  0.000000  0.000000      1.000000
  0.030474  0.000000  0.000000      2.000000
  0.060948  0.000000  0.000000      2.000000
  0.091422  0.000000  0.000000      1.000000
  0.000000  0.033511  0.000000      2.000000
  0.030474  0.033511  0.000000      4.000000
  0.060948  0.033511  0.000000      4.000000
  0.091422  0.033511  0.000000      2.000000
  0.000000  0.067023  0.000000      2.000000
  0.030474  0.067023  0.000000      4.000000
  0.060948  0.067023  0.000000      4.000000
  0.091422  0.067023  0.000000      2.000000
  0.000000  0.100534  0.000000      1.000000
  0.030474  0.100534  0.000000      2.000000
  0.060948  0.100534  0.000000      2.000000
  0.091422  0.100534  0.000000      1.000000
  0.000000  0.000000  0.030794      2.000000
  0.030474  0.000000  0.030794      4.000000
  0.060948  0.000000  0.030794      4.000000
  0.091422  0.000000  0.030794      2.000000
  0.000000  0.033511  0.030794      4.000000
  0.030474  0.033511  0.030794      4.000000
  0.060948  0.033511  0.030794      4.000000
  0.091422  0.033511  0.030794      4.000000
 -0.060948  0.033511  0.030794      4.000000
 -0.030474  0.033511  0.030794      4.000000
  0.000000  0.067023  0.030794      4.000000
  0.030474  0.067023  0.030794      4.000000
  0.060948  0.067023  0.030794      4.000000
  0.091422  0.067023  0.030794      4.000000
 -0.060948  0.067023  0.030794      4.000000
 -0.030474  0.067023  0.030794      4.000000
  0.000000  0.100534  0.030794      2.000000
  0.030474  0.100534  0.030794      4.000000
  0.060948  0.100534  0.030794      4.000000
  0.091422  0.100534  0.030794      2.000000

 TETIRR: Found    544 inequivalent tetrahedra from      648

 SYSTEM =  CuFeS2
 POSCAR =  sm_isp_SD0310437-standardized_unitcell

 Startparameter for this run:
   NWRITE =      2    write-flag & timer
   PREC   = accura    normal or accurate (medium, high low for compatibility)
   ISTART =      1    job   : 0-new  1-cont  2-samecut
   ICHARG =      1    charge: 1-file 2-atom 10-const
   ISPIN  =      1    spin polarized calculation?
   LNONCOLLINEAR =      T non collinear calculations
   LSORBIT =      F    spin-orbit coupling
   INIWAV =      1    electr: 0-lowe 1-rand  2-diag
   LASPH  =      T    aspherical Exc in radial PAW
   METAGGA=      F    non-selfconsistent MetaGGA calc.

 Electronic Relaxation 1
   ENCUT  =  700.0 eV  51.45 Ry    7.17 a.u.  11.80 10.73 23.35*2*pi/ulx,y,z
   ENINI  =  700.0     initial cutoff
   ENAUG  =  758.2 eV  augmentation charge cutoff
   NELM   =    200;   NELMIN=  2; NELMDL=  0     # of ELM steps
   EDIFF  = 0.1E-07   stopping-criterion for ELM
   LREAL  =      F    real-space projection
   NLSPLINE    = F    spline interpolate recip. space projectors
   LCOMPAT=      F    compatible to vasp.4.4
   GGA_COMPAT  = T    GGA compatible to vasp.4.4-vasp.4.6
   LMAXPAW     = -100 max onsite density
   LMAXMIX     =    4 max onsite mixed and CHGCAR
   VOSKOWN=      0    Vosko Wilk Nusair interpolation
   ROPT   =    0.00000   0.00000   0.00000
 Ionic relaxation
   EDIFFG = -.1E-04   stopping-criterion for IOM
   NSW    =      0    number of steps for IOM
   NBLOCK =      1;   KBLOCK =      1    inner block; outer block
   IBRION =     -1    ionic relax: 0-MD 1-quasi-New 2-CG
   NFREE  =      0    steps in history (QN), initial steepest desc. (CG)
   ISIF   =      2    stress and relaxation
   IWAVPR =     10    prediction:  0-non 1-charg 2-wave 3-comb
   ISYM   =      1    0-nonsym 1-usesym 2-fastsym
   LCORR  =      T    Harris-Foulkes like correction to forces

   POTIM  = 0.1000    time-step for ionic-motion
   TEIN   =    0.0    initial temperature
   TEBEG  =    0.0;   TEEND  =   0.0 temperature during run
   SMASS  =  -3.00    Nose mass-parameter (am)
   estimated Nose-frequenzy (Omega)   =  0.10E-29 period in steps =****** mass=  -0.684E-27a.u.
   SCALEE = 1.0000    scale energy and forces
   NPACO  =    256;   APACO  = 16.0  distance and # of slots for P.C.
   PSTRESS=    0.0 pullay stress

  Mass of Ions in am
   POMASS =  32.07 63.55 55.85
  Ionic Valenz
   ZVAL   =   6.00 17.00 14.00
  Atomic Wigner-Seitz radii
  virtual crystal weights
   VCA    =   1.00  1.00  1.00
   NELECT =     172.0000    total number of electrons
   NUPDOWN=      -1.0000    fix difference up-down

[...]
 Maximum number of real-space cells 3x 4x 2
 Maximum number of reciprocal cells 2x 2x 4

--------------------------------------- Iteration      1(   1)  ---------------------------------------

 BZINTS: Fermi energy:  4.667406;172.000000 electrons
         Band energy:***********;  BLOECHL correction:  0.000000
 BZINTS: Fermi energy:  4.667406;172.000000 electrons
         Band energy:***********;  BLOECHL correction:  0.000000

 eigenvalue-minimisations  :     0
 total energy-change (2. order) :-0.8184417E+02  (-0.3114561E-06)
 number of electron     171.9999879 magnetization       0.0000000      0.0000000      0.0000000
 augmentation part       70.5753331 magnetization      -0.0000002     -0.0000003      0.0005319

 Free energy of the ion-electron system (eV)
  alpha Z        PSCENC =       575.49757745
  Ewald energy   TEWEN  =    -15510.28946610
  -Hartree energ DENC   =    -10801.14712754
  -exchange      EXHF   =         0.00000000
  -V(xc)+E(xc)   XCENC  =       820.77250299
  PAW double counting   =     27813.15623673   -28735.60375611
  entropy T*S    EENTRO =         0.00000000
  eigenvalues    EBANDS =     -2749.24641251
  atomic energy  EATOM  =     28505.01627691
  free energy    TOTEN  =       -81.84416817 eV

  energy without entropy =      -81.84416817  energy(sigma->0) =      -81.84416817

[...]

 eigenvalue-minimisations  :     0
 total energy-change (2. order) : 0.3123569E-06  (-0.4770220E-08)
 number of electron     171.9999879 magnetization       0.0000000      0.0000000      0.0000000
 augmentation part       70.5753329 magnetization      -0.0000001      0.0000000      0.0005319

[...]

 eigenvalue-minimisations  :     0
 total energy-change (2. order) :-0.4345202E-07  ( 0.3623236E-08)
 number of electron     171.9999879 magnetization       0.0000000      0.0000000      0.0000000
 augmentation part       70.5753329 magnetization      -0.0000000     -0.0000001      0.0005319

[...]

--------------------------------------- Iteration      1(  55)  ---------------------------------------

 BZINTS: Fermi energy:  4.667406;172.000000 electrons
         Band energy:***********;  BLOECHL correction:  0.000000
 BZINTS: Fermi energy:  4.667406;172.000000 electrons
         Band energy:***********;  BLOECHL correction:  0.000000

 eigenvalue-minimisations  :     0
 total energy-change (2. order) :-0.8829375E-08  (-0.1554773E-09)
 number of electron     171.9999879 magnetization       0.0000000      0.0000000      0.0000000
 augmentation part       70.5753329 magnetization      -0.0000000     -0.0000001      0.0005319

 Free energy of the ion-electron system (eV)
  alpha Z        PSCENC =       575.49757745
  Ewald energy   TEWEN  =    -15510.28946610
  -Hartree energ DENC   =    -10801.14688511
  -exchange      EXHF   =         0.00000000
  -V(xc)+E(xc)   XCENC  =       820.77242651
  PAW double counting   =     27813.15468448   -28735.60220336
  entropy T*S    EENTRO =         0.00000000
  eigenvalues    EBANDS =     -2749.24661199
  atomic energy  EATOM  =     28505.01627691
  free energy    TOTEN  =       -81.84420120 eV

  energy without entropy =      -81.84420120  energy(sigma->0) =      -81.84420120

  average scaling for gradient   0.8602

 average (electrostatic) potential at core
  the test charge radii are     0.9698  0.8297  0.9500
  (the norm of the test charge is              1.0000)
       1 -86.8090       2 -86.8090       3 -86.8113       4 -86.8113       5 -86.8090
       6 -86.8090       7 -86.8113       8 -86.8113       9 -80.8338      10 -80.8338
      11 -80.8338      12 -80.8338      13 -80.5225      14 -80.5225      15 -80.5225
      16 -80.5225

 E-fermi :   4.6674     XC(G=0): -10.3572     alpha+bet :-10.3039

 k-point     1 :       0.0000    0.0000    0.0000
  band No.  band energies     occupation
      1     -64.4421      1.00000
      2     -64.4421      1.00000
      3     -64.4421      1.00000
      4     -64.4421      1.00000
      5     -64.4221      1.00000
      6     -64.4221      1.00000
      7     -64.4221      1.00000
      8     -64.4221      1.00000
      9     -64.4155      1.00000
     10     -64.4155      1.00000
     11     -64.4155      1.00000
     12     -64.4155      1.00000
     13     -64.4080      1.00000
     14     -64.4080      1.00000
     15     -64.4080      1.00000
     16     -64.4080      1.00000
     17     -64.3896      1.00000
     18     -64.3896      1.00000
     19     -64.3896      1.00000
     20     -64.3896      1.00000
     21     -64.3858      1.00000
     22     -64.3858      1.00000
     23     -64.3858      1.00000
     24     -64.3858      1.00000
     25     -52.2400      1.00000
     26     -52.2400      1.00000
     27     -52.2399      1.00000
     28     -52.2399      1.00000
     29     -52.1420      1.00000
     30     -52.1420      1.00000
     31     -52.1420      1.00000
     32     -52.1420      1.00000
     33     -52.1154      1.00000
     34     -52.1154      1.00000
     35     -52.1154      1.00000
     36     -52.1154      1.00000
     37     -48.0427      1.00000
     38     -48.0427      1.00000
     39     -48.0427      1.00000
     40     -48.0427      1.00000
     41     -47.9818      1.00000
     42     -47.9818      1.00000
     43     -47.9818      1.00000
     44     -47.9818      1.00000
     45     -47.9790      1.00000
     46     -47.9790      1.00000
     47     -47.9790      1.00000
     48     -47.9790      1.00000
     49      -9.1992      1.00000
     50      -9.1992      1.00000
     51      -8.6409      1.00000
     52      -8.6409      1.00000
     53      -8.6160      1.00000
     54      -8.6160      1.00000
     55      -7.9682      1.00000
     56      -7.9682      1.00000
     57      -7.9440      1.00000
     58      -7.9440      1.00000
     59      -7.8941      1.00000
     60      -7.8941      1.00000
[...]
    194       7.3367      0.00000
    195       8.1832      0.00000
    196       8.1832      0.00000
    197       8.7038      0.00000
    198       8.7038      0.00000
    199       8.7428      0.00000
    200       8.7428      0.00000
    201       9.0669      0.00000
    202       9.0669      0.00000
    203       9.2485      0.00000
    204       9.2485      0.00000
    205       9.3415      0.00000
    206       9.3415      0.00000
    207      10.1317      0.00000
    208      10.1317      0.00000

[...]

 k-point    36 :       0.5000    0.5000    0.3333
  band No.  band energies     occupation
      1     -64.4421      1.00000
      2     -64.4421      1.00000
      3     -64.4421      1.00000
      4     -64.4421      1.00000
      5     -64.4221      1.00000
      6     -64.4221      1.00000
      7     -64.4221      1.00000
      8     -64.4221      1.00000
      9     -64.4155      1.00000
     10     -64.4155      1.00000
     11     -64.4155      1.00000
     12     -64.4155      1.00000
     13     -64.4080      1.00000
     14     -64.4080      1.00000
     15     -64.4080      1.00000
     16     -64.4080      1.00000
     17     -64.3896      1.00000
     18     -64.3896      1.00000
     19     -64.3896      1.00000
     20     -64.3896      1.00000
     21     -64.3858      1.00000
     22     -64.3858      1.00000
     23     -64.3858      1.00000
     24     -64.3858      1.00000
     25     -52.2400      1.00000
     26     -52.2400      1.00000
     27     -52.2400      1.00000
     28     -52.2400      1.00000
     29     -52.1420      1.00000
     30     -52.1420      1.00000
     31     -52.1420      1.00000
     32     -52.1420      1.00000
     33     -52.1154      1.00000
     34     -52.1154      1.00000
     35     -52.1154      1.00000
     36     -52.1154      1.00000
     37     -48.0427      1.00000
     38     -48.0427      1.00000
     39     -48.0427      1.00000
     40     -48.0427      1.00000
     41     -47.9818      1.00000
     42     -47.9818      1.00000
     43     -47.9818      1.00000
     44     -47.9818      1.00000
     45     -47.9790      1.00000
     46     -47.9790      1.00000
     47     -47.9790      1.00000
     48     -47.9790      1.00000
     49      -8.2555      1.00000
     50      -8.2555      1.00000
     51      -8.2482      1.00000
     52      -8.2482      1.00000
     53      -8.2476      1.00000
     54      -8.2476      1.00000
     55      -8.2459      1.00000
     56      -8.2459      1.00000
     57      -8.2352      1.00000
     58      -8.2352      1.00000
     59      -8.2272      1.00000
     60      -8.2272      1.00000
[...]
    194       9.0163      0.00000
    195       9.0213      0.00000
    196       9.0213      0.00000
    197       9.1605      0.00000
    198       9.1605      0.00000
    199       9.1728      0.00000
    200       9.1728      0.00000
    201       9.7994      0.00000
    202       9.7994      0.00000
    203       9.7999      0.00000
    204       9.7999      0.00000
    205      10.0928      0.00000
    206      10.0928      0.00000
    207      10.1090      0.00000
    208      10.1090      0.00000

 soft charge-density along one line, spin component           1
         0         1         2         3         4         5         6         7         8         9
 total charge-density along one line

[...]

 soft charge-density along one line, spin component           4
         0         1         2         3         4         5         6         7         8         9
 total charge-density along one line

------------------------ aborting loop because EDIFF is reached ----------------------------------------

 total charge

# of ion       s       p       d       tot
    1        1.314   2.397   0.000   3.711
    2        1.314   2.397   0.000   3.711
    3        1.314   2.401   0.000   3.714
    4        1.314   2.401   0.000   3.714
    5        1.314   2.397   0.000   3.711
    6        1.314   2.397   0.000   3.711
    7        1.314   2.401   0.000   3.714
    8        1.314   2.401   0.000   3.714
    9        0.252   6.190   8.920  15.362
   10        0.252   6.190   8.920  15.362
   11        0.252   6.190   8.920  15.362
   12        0.252   6.190   8.920  15.362
   13        0.343   6.335   5.801  12.480
   14        0.343   6.335   5.802  12.480
   15        0.343   6.335   5.801  12.480
   16        0.343   6.335   5.802  12.480
tot         12.891  69.295  58.885 141.071

 magnetization (x)

[...]

 magnetization (y)

[...]

 magnetization (z)

[...]

  FORCE on cell =-STRESS in cart. coord.  units (eV):
  Direction    XX          YY          ZZ          XY          YZ          ZX
  Alpha Z   575.49758   575.49758   575.49758
  Ewald   -5015.42484 -5466.07570 -5028.81941    -0.00000     0.00000    -0.00000
  Hartree  3671.25765  3445.55419  3684.33504    -0.00000    -0.00000    -0.00000
  E(xc)   -1049.77050 -1050.06042 -1049.77899     0.00000    -0.00000     0.00000
  Local   -1520.29200  -846.42656 -1518.09253     0.00000    -0.00000    -0.00000
  n-local   119.65400   114.79598   119.78421    -0.28574    -0.02504    -0.00934
  augment  1181.93724  1179.02638  1180.25160     0.00000     0.00000     0.00000
  Kinetic  2031.16487  2047.68827  2031.41604    -0.90487     0.01009    -0.00429
  Fock        0.00000     0.00000     0.00000     0.00000     0.00000     0.00000
  Total      -5.97600    -0.00028    -5.40646     0.00000     0.00000     0.00000
  in kB     -32.51852    -0.00151   -29.41936     0.00000     0.00000     0.00000

 VOLUME and BASIS-vectors are now :
  energy-cutoff  :      700.00
  volume of cell :      294.44
      direct lattice vectors                 reciprocal lattice vectors
     5.469137082  0.000000000  0.000000000     0.182844201  0.000000000  0.000000000
     0.000000000  4.973438499  0.000000000     0.000000000  0.201068134  0.000000000
     0.000000000  0.000000000 10.824668134     0.000000000  0.000000000  0.092381585

  length of vectors
     5.469137082  4.973438499 10.824668134     0.182844201  0.201068134  0.092381585

 FORCES acting on ions:
    Electron-Ion                     Ewald-Force                    Non-Local-Force
   0.438E+02 -.381E-11 -.129E-10   -.446E+02 0.123E-10 -.682E-11   0.766E+00 0.542E-19 0.217E-18
   -.438E+02 0.381E-11 -.118E-10   0.446E+02 -.125E-10 -.676E-11   -.766E+00 0.136E-19 -.130E-17
   0.412E-11 -.369E+02 -.135E-10   0.768E-12 0.375E+02 0.114E-12   -.434E-18 -.603E+00 0.000E+00
   -.420E-11 0.369E+02 -.116E-10   -.109E-11 -.375E+02 0.156E-12   -.434E-18 0.603E+00 0.434E-18
   -.438E+02 0.357E-11 -.125E-10   0.446E+02 0.124E-10 0.674E-11   -.766E+00 -.136E-19 0.434E-18
   0.438E+02 -.266E-11 -.134E-10   -.446E+02 -.125E-10 0.665E-11   0.766E+00 0.542E-19 0.651E-18
   0.391E-11 -.369E+02 -.127E-10   -.111E-11 0.375E+02 -.568E-13   -.434E-18 -.603E+00 0.000E+00
   -.416E-11 0.369E+02 -.130E-10   0.597E-12 -.375E+02 -.568E-13   -.434E-18 0.603E+00 0.434E-18
   0.333E-12 -.217E-12 0.375E+01   0.748E-05 -.208E-04 -.380E+01   0.108E-18 0.000E+00 0.491E-01
   0.191E-11 0.206E-12 -.375E+01   -.748E-05 -.208E-04 0.380E+01   0.217E-18 0.000E+00 -.491E-01
   0.204E-11 0.442E-11 0.375E+01   -.748E-05 0.208E-04 -.380E+01   0.108E-18 0.000E+00 0.491E-01
   0.374E-12 0.135E-11 -.375E+01   0.748E-05 0.208E-04 0.380E+01   0.217E-18 0.000E+00 -.491E-01
   0.416E-13 -.189E-12 -.959E+01   -.547E-05 0.173E-04 0.960E+01   0.867E-18 -.108E-18 -.103E-01
   0.686E-12 0.309E-12 0.959E+01   0.547E-05 0.173E-04 -.960E+01   0.173E-17 0.108E-18 0.103E-01
   0.707E-12 0.129E-11 -.959E+01   0.547E-05 -.173E-04 0.960E+01   0.867E-18 -.108E-18 -.103E-01
   0.624E-13 0.109E-11 0.959E+01   -.547E-05 -.173E-04 -.960E+01   0.173E-17 0.108E-18 0.103E-01
   0.117E-10 0.850E-11 -.673E-08   0.652E-13 0.130E-13 0.409E-13   0.499E-17 -.111E-15 -.347E-17

 POSITION                                       TOTAL-FORCE (eV/Angst)
      1.37872      1.24336      1.35308         0.000005      0.000000      0.000000
      4.09042      3.73008      1.35308        -0.000005      0.000000      0.000000
      1.36728      3.72009      9.47158        -0.000000      0.000001     -0.000000
      4.10185      1.25335      9.47158         0.000000     -0.000001     -0.000000
      1.35585      1.24336      6.76542        -0.000005     -0.000000      0.000000
      4.11329      3.73008      6.76542         0.000005      0.000000     -0.000000
      4.10185      1.23337      4.05925        -0.000000      0.000001      0.000000
      1.36728      3.74007      4.05925         0.000000     -0.000001     -0.000000
      0.00000      0.00000      5.40732        -0.000000      0.000000      0.000007
      2.73457      0.00000      2.71118        -0.000000      0.000000     -0.000007
      2.73457      2.48672     10.81965        -0.000000      0.000000      0.000007
      0.00000      2.48672      8.12352        -0.000000      0.000000     -0.000007
      0.00000      0.00000     10.82279        -0.000000      0.000000      0.000010
      2.73457      0.00000      8.12037        -0.000000      0.000000     -0.000010
      2.73457      2.48672      5.41046        -0.000000      0.000000      0.000010
      0.00000      2.48672      2.70804        -0.000000      0.000000     -0.000010
    total drift:                                0.000000      0.000000     -0.000000

  FREE ENERGIE OF THE ION-ELECTRON SYSTEM (eV)
  free  energy   TOTEN  =       -81.84420120 eV

  energy  without entropy=      -81.84420120  energy(sigma->0) =      -81.84420120

 writing wavefunctions

 total charge

[...]

 magnetization (x)

[...]

 magnetization (y)

[...]

 magnetization (z)

# of ion       s       p       d       tot
    1        0.000  -0.003   0.000  -0.003
    2        0.000  -0.003   0.000  -0.003
    3       -0.000   0.004   0.000   0.003
    4       -0.000   0.002   0.000   0.002
    5        0.000  -0.003   0.000  -0.003
    6        0.000  -0.003   0.000  -0.003
    7       -0.000   0.004   0.000   0.003
    8       -0.000   0.002   0.000   0.002
    9        0.000  -0.000   0.002   0.002
   10       -0.000   0.000  -0.002  -0.002
   11        0.000  -0.000   0.002   0.002
   12       -0.000   0.000  -0.002  -0.002
   13        0.021   0.052   3.698   3.771
   14       -0.021  -0.052  -3.698  -3.771
   15        0.021   0.052   3.698   3.771
   16       -0.021  -0.052  -3.698  -3.771
tot          0.000  -0.000   0.001   0.000

 BZINTS: Fermi energy:  4.667406;172.000000 electrons
         Band energy:***********;  BLOECHL correction:  0.000000
 BZINTS: Fermi energy:  4.667406;172.000000 electrons
         Band energy:***********;  BLOECHL correction:  0.000000
 BZINTS: Fermi energy:  4.667406;172.000000 electrons
         Band energy:***********;  BLOECHL correction:  0.000000
 BZINTS: Fermi energy:  4.667406;172.000000 electrons
         Band energy:***********;  BLOECHL correction:  0.000000