 vasp.5.4.4.18Apr17-6-g9f103f2a35 (build Oct 30 2023 17:49:44) complex

 executed on             LinuxIFC date 2024.12.10  21:53:46

 INCAR:
 POTCAR:    PAW_PBE S 06Sep2000
 POTCAR:     PAW_PBE Cu_pv 06Sep2000
 POTCAR:     PAW_PBE Fe_pv 02Aug2007
 POTCAR:    PAW_PBE S 06Sep2000
   VRHFIN =S : s2p4

   TITEL  = PAW_PBE S 06Sep2000
   POMASS =   32.066; ZVAL   =    6.000    mass and valenz
   ENMAX  =  258.689; ENMIN  =  194.016 eV

   TITEL  = PAW_PBE Cu_pv 06Sep2000
   POMASS =   63.546; ZVAL   =   17.000    mass and valenz
   ENMAX  =  368.648; ENMIN  =  276.486 eV

   TITEL  = PAW_PBE Fe_pv 02Aug2007
   POMASS =   55.847; ZVAL   =   14.000    mass and valenz
   ENMAX  =  293.238; ENMIN  =  219.928 eV

  PAW_PBE S 06Sep2000                   :
   PAW_PBE Cu_pv 06Sep2000              :
   PAW_PBE Fe_pv 02Aug2007              :

 POSCAR: sm_isp_SD0310437-standardized_unitcell
  positions in direct lattice
  velocities in cartesian coordinates
 exchange correlation table for  LEXCH =       14
   RHO(1)=    0.500       N(1)  =     2000
   RHO(2)=  100.500       N(2)  =     4000

 ion  position               nearest neighbor table
   1  0.252  0.250  0.125-  10 2.24  11 2.24  16 2.26  13 2.26
   2  0.748  0.750  0.125-  10 2.24  11 2.24  16 2.26  13 2.26
   3  0.250  0.747  0.875-  11 2.25  12 2.25  14 2.26  13 2.26
   4  0.750  0.253  0.875-  11 2.25  12 2.25  14 2.26  13 2.26
   5  0.248  0.250  0.625-   9 2.24  12 2.24  15 2.26  14 2.26
   6  0.752  0.750  0.625-   9 2.24  12 2.24  15 2.26  14 2.26
   7  0.750  0.247  0.375-  10 2.25   9 2.25  15 2.26  16 2.26
   8  0.250  0.753  0.375-  10 2.25   9 2.25  15 2.26  16 2.26
   9  0.000  0.000  0.501-   5 2.24   6 2.24   7 2.25   8 2.25
  10  0.500  0.000  0.249-   1 2.24   2 2.24   7 2.25   8 2.25
  11  0.500  0.500  0.001-   1 2.24   2 2.24   4 2.25   3 2.25
  12  0.000  0.500  0.749-   5 2.24   6 2.24   4 2.25   3 2.25
  13  0.000  0.000  1.000-   2 2.26   1 2.26   3 2.26   4 2.26
  14  0.500  0.000  0.750-   6 2.26   5 2.26   3 2.26   4 2.26
  15  0.500  0.500  0.500-   6 2.26   5 2.26   8 2.26   7 2.26
  16  0.000  0.500  0.250-   2 2.26   1 2.26   8 2.26   7 2.26

  LATTYP: Found a simple orthorhombic cell.
 ALAT       =     4.9958463727
 B/A-ratio  =     1.1257230141
 C/A-ratio  =     1.9792277963

  Lattice vectors:

 A1 = (   4.9958463727,   0.0000000000,   0.0000000000)
 A2 = (   0.0000000000,   5.6239392368,   0.0000000000)
 A3 = (   0.0000000000,   0.0000000000,   9.8879180071)

Analysis of symmetry for initial positions (statically):
 Subroutine PRICEL returns following result:

  LATTYP: Found a body centered orthorhombic cell.
 ALAT       =     4.9958463727
 B/A-ratio  =     1.1257230141
 C/A-ratio  =     1.9792277963

[...]

   2 primitive cells build up your supercell.

 Routine SETGRP: Setting up the symmetry group for a
 simple orthorhombic supercell.

 Subroutine GETGRP returns: Found  4 space group operations
 (whereof  2 operations were pure point group operations)
 out of a pool of  8 trial point group operations.

The static configuration has the point symmetry C_2 .
 The point group associated with its full space group is D_2 .

Analysis of symmetry for dynamics (positions and initial velocities):
 Subroutine PRICEL returns following result:

[...]

The dynamic configuration has the point symmetry C_2 .
 The point group associated with its full space group is D_2 .

Analysis of structural, dynamic, and magnetic symmetry:
 Subroutine PRICEL returns following result:

  LATTYP: Found a body centered orthorhombic cell.
 ALAT       =     4.9958463727
 B/A-ratio  =     1.1257230141
 C/A-ratio  =     1.9792277963

  Lattice vectors:

 A1 = (   2.4979231864,  -2.8119696184,   4.9439590035)
 A2 = (  -2.4979231864,   2.8119696184,   4.9439590035)
 A3 = (  -2.4979231864,  -2.8119696184,  -4.9439590035)

   2 primitive cells build up your supercell.

 Routine SETGRP: Setting up the symmetry group for a
 simple orthorhombic supercell.

 Subroutine GETGRP returns: Found  4 space group operations
 (whereof  2 operations were pure point group operations)
 out of a pool of  8 trial point group operations.

The (compounded) configuration has the point symmetry C_2 .
 The point group associated with its full space group is D_2 .

 Subroutine INISYM returns: Found  4 space group operations
 (whereof  2 operations are pure point group operations),
 and found     2 'primitive' translations

 KPOINTS: Automatic mesh

Automatic generation of k-mesh.
Space group operators:
 irot       det(A)        alpha          n_x          n_y          n_z        tau_x        tau_y        tau_z
    1     1.000000     0.000001     1.000000     0.000000     0.000000     0.000000     0.000000     0.000000
    2     1.000000   180.000000     0.000000     0.000000     1.000000     0.000000     0.000000     0.000000
    3     1.000000   180.000000     0.000000     1.000000     0.000000     0.000000    -0.500000     0.250000
    4     1.000000   179.999999     1.000000     0.000000     0.000000     0.000000    -0.500000     0.250000

 Subroutine IBZKPT returns following result:

 Found     36 irreducible k-points:

 Following reciprocal coordinates:
            Coordinates               Weight
  0.000000  0.000000  0.000000      1.000000
  0.166667  0.000000  0.000000      2.000000
  0.333333  0.000000  0.000000      2.000000
  0.500000  0.000000  0.000000      1.000000
  0.000000  0.166667  0.000000      2.000000
  0.166667  0.166667  0.000000      4.000000
  0.333333  0.166667  0.000000      4.000000
  0.500000  0.166667  0.000000      2.000000
  0.000000  0.333333  0.000000      2.000000
  0.166667  0.333333  0.000000      4.000000
  0.333333  0.333333  0.000000      4.000000
  0.500000  0.333333  0.000000      2.000000
  0.000000  0.500000  0.000000      1.000000
  0.166667  0.500000  0.000000      2.000000
  0.333333  0.500000  0.000000      2.000000
  0.500000  0.500000  0.000000      1.000000
  0.000000  0.000000  0.333333      2.000000
  0.166667  0.000000  0.333333      4.000000
  0.333333  0.000000  0.333333      4.000000
  0.500000  0.000000  0.333333      2.000000
  0.000000  0.166667  0.333333      4.000000
  0.166667  0.166667  0.333333      4.000000
  0.333333  0.166667  0.333333      4.000000
  0.500000  0.166667  0.333333      4.000000
 -0.333333  0.166667  0.333333      4.000000
 -0.166667  0.166667  0.333333      4.000000
  0.000000  0.333333  0.333333      4.000000
  0.166667  0.333333  0.333333      4.000000
  0.333333  0.333333  0.333333      4.000000
  0.500000  0.333333  0.333333      4.000000
 -0.333333  0.333333  0.333333      4.000000
 -0.166667  0.333333  0.333333      4.000000
  0.000000  0.500000  0.333333      2.000000
  0.166667  0.500000  0.333333      4.000000
  0.333333  0.500000  0.333333      4.000000
  0.500000  0.500000  0.333333      2.000000

 Following cartesian coordinates:
            Coordinates               Weight
  0.000000  0.000000  0.000000      1.000000
  0.033361  0.000000  0.000000      2.000000
  0.066722  0.000000  0.000000      2.000000
  0.100083  0.000000  0.000000      1.000000
  0.000000  0.029635  0.000000      2.000000
  0.033361  0.029635  0.000000      4.000000
  0.066722  0.029635  0.000000      4.000000
  0.100083  0.029635  0.000000      2.000000
  0.000000  0.059270  0.000000      2.000000
  0.033361  0.059270  0.000000      4.000000
  0.066722  0.059270  0.000000      4.000000
  0.100083  0.059270  0.000000      2.000000
  0.000000  0.088906  0.000000      1.000000
  0.033361  0.088906  0.000000      2.000000
  0.066722  0.088906  0.000000      2.000000
  0.100083  0.088906  0.000000      1.000000
  0.000000  0.000000  0.033711      2.000000
  0.033361  0.000000  0.033711      4.000000
  0.066722  0.000000  0.033711      4.000000
  0.100083  0.000000  0.033711      2.000000
  0.000000  0.029635  0.033711      4.000000
  0.033361  0.029635  0.033711      4.000000
  0.066722  0.029635  0.033711      4.000000
  0.100083  0.029635  0.033711      4.000000
 -0.066722  0.029635  0.033711      4.000000
 -0.033361  0.029635  0.033711      4.000000
  0.000000  0.059270  0.033711      4.000000
  0.033361  0.059270  0.033711      4.000000
  0.066722  0.059270  0.033711      4.000000
  0.100083  0.059270  0.033711      4.000000
 -0.066722  0.059270  0.033711      4.000000
 -0.033361  0.059270  0.033711      4.000000
  0.000000  0.088906  0.033711      2.000000
  0.033361  0.088906  0.033711      4.000000
  0.066722  0.088906  0.033711      4.000000
  0.100083  0.088906  0.033711      2.000000

 TETIRR: Found    544 inequivalent tetrahedra from      648

 SYSTEM =  CuFeS2
 POSCAR =  sm_isp_SD0310437-standardized_unitcell

 Startparameter for this run:
   NWRITE =      2    write-flag & timer
   PREC   = accura    normal or accurate (medium, high low for compatibility)
   ISTART =      1    job   : 0-new  1-cont  2-samecut
   ICHARG =      1    charge: 1-file 2-atom 10-const
   ISPIN  =      1    spin polarized calculation?
   LNONCOLLINEAR =      T non collinear calculations
   LSORBIT =      F    spin-orbit coupling
   INIWAV =      1    electr: 0-lowe 1-rand  2-diag
   LASPH  =      T    aspherical Exc in radial PAW
   METAGGA=      F    non-selfconsistent MetaGGA calc.

 Electronic Relaxation 1
   ENCUT  =  700.0 eV  51.45 Ry    7.17 a.u.  10.78 12.13 21.33*2*pi/ulx,y,z
   ENINI  =  700.0     initial cutoff
   ENAUG  =  758.2 eV  augmentation charge cutoff
   NELM   =    200;   NELMIN=  2; NELMDL=  0     # of ELM steps
   EDIFF  = 0.1E-07   stopping-criterion for ELM
   LREAL  =      F    real-space projection
   NLSPLINE    = F    spline interpolate recip. space projectors
   LCOMPAT=      F    compatible to vasp.4.4
   GGA_COMPAT  = T    GGA compatible to vasp.4.4-vasp.4.6
   LMAXPAW     = -100 max onsite density
   LMAXMIX     =    4 max onsite mixed and CHGCAR
   VOSKOWN=      0    Vosko Wilk Nusair interpolation
   ROPT   =    0.00000   0.00000   0.00000
 Ionic relaxation
   EDIFFG = -.1E-04   stopping-criterion for IOM
   NSW    =      0    number of steps for IOM
   NBLOCK =      1;   KBLOCK =      1    inner block; outer block
   IBRION =     -1    ionic relax: 0-MD 1-quasi-New 2-CG
   NFREE  =      0    steps in history (QN), initial steepest desc. (CG)
   ISIF   =      2    stress and relaxation
   IWAVPR =     10    prediction:  0-non 1-charg 2-wave 3-comb
   ISYM   =      1    0-nonsym 1-usesym 2-fastsym
   LCORR  =      T    Harris-Foulkes like correction to forces

   POTIM  = 0.1000    time-step for ionic-motion
   TEIN   =    0.0    initial temperature
   TEBEG  =    0.0;   TEEND  =   0.0 temperature during run
   SMASS  =  -3.00    Nose mass-parameter (am)
   estimated Nose-frequenzy (Omega)   =  0.10E-29 period in steps =****** mass=  -0.570E-27a.u.
   SCALEE = 1.0000    scale energy and forces
   NPACO  =    256;   APACO  = 16.0  distance and # of slots for P.C.
   PSTRESS=    0.0 pullay stress

  Mass of Ions in am
   POMASS =  32.07 63.55 55.85
  Ionic Valenz
   ZVAL   =   6.00 17.00 14.00
  Atomic Wigner-Seitz radii
  virtual crystal weights
   VCA    =   1.00  1.00  1.00
   NELECT =     172.0000    total number of electrons
   NUPDOWN=      -1.0000    fix difference up-down

[...]

 Broyden mixing: mesh for mixing (old mesh)
   NGX = 21   NGY = 25   NGZ = 43
  (NGX  = 96   NGY  =100   NGZ  =180)
  gives a total of  22575 points

 initial charge density was supplied:
 number of electron     171.9999953 magnetization       0.0000000     -0.0000000     -0.0000000
 charge density for first step will be calculated from the start-wavefunctions

 BZINTS: Fermi energy:  5.254180;172.000000 electrons
         Band energy:***********;  BLOECHL correction:  0.000000
 Maximum index for augmentation-charges          917 (set IRDMAX)

 initial charge from wavefunction
 First call to EWALD:  gamma=   0.272
 Maximum number of real-space cells 3x 3x 2
 Maximum number of reciprocal cells 2x 2x 4

--------------------------------------- Iteration      1(   1)  ---------------------------------------

 BZINTS: Fermi energy:  5.254179;172.000000 electrons
         Band energy:***********;  BLOECHL correction:  0.000000
 BZINTS: Fermi energy:  5.254180;172.000000 electrons
         Band energy:***********;  BLOECHL correction:  0.000000

 eigenvalue-minimisations  :     0
 total energy-change (2. order) :-0.8170220E+02  (-0.1868015E-06)
 number of electron     171.9999953 magnetization       0.0000000      0.0000000      0.0000000
 augmentation part       70.5460995 magnetization      -0.0000000     -0.0000001     -0.0006846

 Free energy of the ion-electron system (eV)
  alpha Z        PSCENC =       609.92874288
  Ewald energy   TEWEN  =    -15821.72266014
  -Hartree energ DENC   =    -10609.02141196
  -exchange      EXHF   =         0.00000000
  -V(xc)+E(xc)   XCENC  =       822.64086725
  PAW double counting   =     28343.87205280   -29267.90957402
  entropy T*S    EENTRO =         0.00000000
  eigenvalues    EBANDS =     -2664.50649009
  atomic energy  EATOM  =     28505.01627691
  free energy    TOTEN  =       -81.70219637 eV

  energy without entropy =      -81.70219637  energy(sigma->0) =      -81.70219637

[...]

--------------------------------------- Iteration      1(  29)  ---------------------------------------

 BZINTS: Fermi energy:  5.254179;172.000000 electrons
         Band energy:***********;  BLOECHL correction:  0.000000
 BZINTS: Fermi energy:  5.254179;172.000000 electrons
         Band energy:***********;  BLOECHL correction:  0.000000

 eigenvalue-minimisations  :     0
 total energy-change (2. order) :-0.3092282E-09  (-0.3564828E-08)
 number of electron     171.9999953 magnetization       0.0000000      0.0000000      0.0000000
 augmentation part       70.5460996 magnetization      -0.0000000     -0.0000000     -0.0006846

 Free energy of the ion-electron system (eV)
  alpha Z        PSCENC =       609.92874288
  Ewald energy   TEWEN  =    -15821.72266014
  -Hartree energ DENC   =    -10609.02140909
  -exchange      EXHF   =         0.00000000
  -V(xc)+E(xc)   XCENC  =       822.64086056
  PAW double counting   =     28343.87230676   -29267.90982911
  entropy T*S    EENTRO =         0.00000000
  eigenvalues    EBANDS =     -2664.50649079
  atomic energy  EATOM  =     28505.01627691
  free energy    TOTEN  =       -81.70220201 eV

  energy without entropy =      -81.70220201  energy(sigma->0) =      -81.70220201

  average scaling for gradient   0.8346

 average (electrostatic) potential at core
  the test charge radii are     0.9698  0.8297  0.9500
  (the norm of the test charge is              1.0000)
       1 -86.3075       2 -86.3075       3 -86.2986       4 -86.2986       5 -86.3075
       6 -86.3075       7 -86.2986       8 -86.2986       9 -80.4451      10 -80.4451
      11 -80.4451      12 -80.4451      13 -79.7582      14 -79.7582      15 -79.7582
      16 -79.7582

 E-fermi :   5.2542     XC(G=0): -10.6500     alpha+bet :-10.9204

 k-point     1 :       0.0000    0.0000    0.0000
  band No.  band energies     occupation
      1     -64.0531      1.00000
      2     -64.0531      1.00000
      3     -64.0531      1.00000
      4     -64.0531      1.00000
      5     -64.0312      1.00000
      6     -64.0312      1.00000
      7     -64.0312      1.00000
      8     -64.0312      1.00000
      9     -64.0284      1.00000
     10     -64.0284      1.00000
     11     -64.0284      1.00000
     12     -64.0284      1.00000
     13     -64.0232      1.00000
     14     -64.0232      1.00000
     15     -64.0232      1.00000
     16     -64.0232      1.00000
     17     -64.0091      1.00000
     18     -64.0091      1.00000
     19     -64.0091      1.00000
     20     -64.0091      1.00000
     21     -63.9938      1.00000
     22     -63.9938      1.00000
     23     -63.9938      1.00000
     24     -63.9938      1.00000
     25     -51.4610      1.00000
     26     -51.4610      1.00000
     27     -51.4610      1.00000
     28     -51.4610      1.00000
     29     -51.4239      1.00000
     30     -51.4239      1.00000
     31     -51.4239      1.00000
     32     -51.4239      1.00000
     33     -51.2283      1.00000
     34     -51.2283      1.00000
     35     -51.2283      1.00000
     36     -51.2283      1.00000
     37     -47.3217      1.00000
     38     -47.3217      1.00000
     39     -47.3217      1.00000
     40     -47.3217      1.00000
     41     -47.3170      1.00000
     42     -47.3170      1.00000
     43     -47.3170      1.00000
     44     -47.3170      1.00000
     45     -47.2298      1.00000
     46     -47.2298      1.00000
     47     -47.2298      1.00000
     48     -47.2298      1.00000
     49      -8.9378      1.00000
     50      -8.9378      1.00000
     51      -8.2373      1.00000
     52      -8.2373      1.00000
     53      -8.2028      1.00000
     54      -8.2028      1.00000
     55      -7.6737      1.00000
     56      -7.6737      1.00000
     57      -7.5355      1.00000
     58      -7.5355      1.00000
     59      -7.5083      1.00000
     60      -7.5083      1.00000
[...]
    194       8.2298      0.00000
    195       8.9449      0.00000
    196       8.9449      0.00000
    197       8.9628      0.00000
    198       8.9628      0.00000
    199       9.7815      0.00000
    200       9.7815      0.00000
    201       9.8212      0.00000
    202       9.8212      0.00000
    203       9.9980      0.00000
    204       9.9980      0.00000
    205      10.2376      0.00000
    206      10.2376      0.00000
    207      10.3317      0.00000
    208      10.3317      0.00000

[...]

 k-point    36 :       0.5000    0.5000    0.3333
  band No.  band energies     occupation
      1     -64.0531      1.00000
      2     -64.0531      1.00000
      3     -64.0531      1.00000
      4     -64.0531      1.00000
      5     -64.0312      1.00000
      6     -64.0312      1.00000
      7     -64.0312      1.00000
      8     -64.0312      1.00000
      9     -64.0284      1.00000
     10     -64.0284      1.00000
     11     -64.0284      1.00000
     12     -64.0284      1.00000
     13     -64.0232      1.00000
     14     -64.0232      1.00000
     15     -64.0232      1.00000
     16     -64.0232      1.00000
     17     -64.0091      1.00000
     18     -64.0091      1.00000
     19     -64.0091      1.00000
     20     -64.0091      1.00000
     21     -63.9938      1.00000
     22     -63.9938      1.00000
     23     -63.9938      1.00000
     24     -63.9938      1.00000
     25     -51.4610      1.00000
     26     -51.4610      1.00000
     27     -51.4610      1.00000
     28     -51.4610      1.00000
     29     -51.4239      1.00000
     30     -51.4239      1.00000
     31     -51.4239      1.00000
     32     -51.4239      1.00000
     33     -51.2283      1.00000
     34     -51.2283      1.00000
     35     -51.2283      1.00000
     36     -51.2283      1.00000
     37     -47.3217      1.00000
     38     -47.3217      1.00000
     39     -47.3217      1.00000
     40     -47.3217      1.00000
     41     -47.3170      1.00000
     42     -47.3170      1.00000
     43     -47.3170      1.00000
     44     -47.3170      1.00000
     45     -47.2298      1.00000
     46     -47.2298      1.00000
     47     -47.2298      1.00000
     48     -47.2298      1.00000
     49      -7.8925      1.00000
     50      -7.8925      1.00000
     51      -7.8903      1.00000
     52      -7.8903      1.00000
     53      -7.8819      1.00000
     54      -7.8819      1.00000
     55      -7.8771      1.00000
     56      -7.8771      1.00000
     57      -7.8566      1.00000
     58      -7.8566      1.00000
     59      -7.8409      1.00000
     60      -7.8409      1.00000
[...]
    194       9.5711      0.00000
    195       9.5720      0.00000
    196       9.5720      0.00000
    197       9.8022      0.00000
    198       9.8022      0.00000
    199       9.8317      0.00000
    200       9.8317      0.00000
    201      10.2595      0.00000
    202      10.2595      0.00000
    203      10.2699      0.00000
    204      10.2699      0.00000
    205      10.6510      0.00000
    206      10.6510      0.00000
    207      10.6810      0.00000
    208      10.6810      0.00000

 soft charge-density along one line, spin component           1
         0         1         2         3         4         5         6         7         8         9
 total charge-density along one line

[...]

 soft charge-density along one line, spin component           4
         0         1         2         3         4         5         6         7         8         9
 total charge-density along one line

------------------------ aborting loop because EDIFF is reached ----------------------------------------

 total charge

# of ion       s       p       d       tot
    1        1.314   2.422   0.000   3.736
    2        1.314   2.421   0.000   3.735
    3        1.315   2.416   0.000   3.731
    4        1.315   2.417   0.000   3.732
    5        1.314   2.421   0.000   3.735
    6        1.314   2.422   0.000   3.736
    7        1.315   2.416   0.000   3.731
    8        1.315   2.417   0.000   3.732
    9        0.266   6.213   8.915  15.394
   10        0.266   6.213   8.915  15.394
   11        0.266   6.213   8.915  15.394
   12        0.266   6.213   8.915  15.394
   13        0.354   6.365   5.846  12.566
   14        0.354   6.365   5.846  12.566
   15        0.354   6.365   5.846  12.566
   16        0.354   6.365   5.846  12.566
tot         12.999  69.663  59.046 141.708

 magnetization (x)

[...]

 magnetization (y)

[...]

 magnetization (z)

[...]

  FORCE on cell =-STRESS in cart. coord.  units (eV):
  Direction    XX          YY          ZZ          XY          YZ          ZX
  Alpha Z   609.92874   609.92874   609.92874
  Ewald   -5433.69794 -4916.65777 -5471.40236     0.00000     0.00000    -0.00000
  Hartree  3464.17199  3694.05787  3450.79155    -0.00000     0.00000     0.00000
  E(xc)   -1051.72787 -1051.44037 -1051.72392    -0.00000    -0.00000    -0.00000
  Local    -936.57044 -1681.41588  -882.25160     0.00000    -0.00000    -0.00000
  n-local   121.95243   129.56733   121.96069    -0.19480    -0.08997    -0.02279
  augment  1179.68171  1184.12675  1177.41570     0.00000    -0.00000    -0.00000
  Kinetic  2053.35471  2031.83335  2051.81593    -0.81778     0.06470    -0.01672
  Fock        0.00000     0.00000     0.00000     0.00000     0.00000     0.00000
  Total       7.09333     0.00003     6.53473     0.00000     0.00000     0.00000
  in kB      40.90783     0.00015    37.68631     0.00000     0.00000     0.00000

 VOLUME and BASIS-vectors are now :
  energy-cutoff  :      700.00
  volume of cell :      277.81
      direct lattice vectors                 reciprocal lattice vectors
     4.995846373  0.000000000  0.000000000     0.200166283  0.000000000  0.000000000
     0.000000000  5.623939237  0.000000000     0.000000000  0.177811309  0.000000000
     0.000000000  0.000000000  9.887918007     0.000000000  0.000000000  0.101133525

  length of vectors
     4.995846373  5.623939237  9.887918007     0.200166283  0.177811309  0.101133525

 FORCES acting on ions:
    Electron-Ion                     Ewald-Force                    Non-Local-Force
   0.408E+02 0.196E-12 0.153E-12   -.416E+02 0.284E-13 0.273E-11   0.816E+00 -.217E-18 0.260E-17
   -.408E+02 0.857E-12 -.182E-11   0.416E+02 -.142E-13 0.281E-11   -.816E+00 -.434E-18 -.260E-17
   0.546E-12 -.470E+02 0.264E-12   0.542E-12 0.480E+02 0.668E-12   0.434E-18 -.103E+01 -.434E-18
   0.728E-12 0.470E+02 -.316E-12   -.127E-11 -.480E+02 0.696E-12   -.651E-18 0.103E+01 0.000E+00
   -.408E+02 -.496E-12 -.392E-13   0.416E+02 -.728E-13 -.283E-11   -.816E+00 -.434E-18 0.260E-17
   0.408E+02 0.183E-12 -.245E-12   -.416E+02 0.409E-13 -.274E-11   0.816E+00 -.217E-18 0.434E-17
   0.410E-12 -.470E+02 0.923E-12   -.128E-11 0.480E+02 -.540E-12   0.434E-18 -.103E+01 -.434E-18
   0.364E-12 0.470E+02 0.463E-12   0.611E-12 -.480E+02 -.568E-12   -.217E-18 0.103E+01 0.000E+00
   -.137E-12 -.131E-12 -.531E+01   0.135E-04 -.267E-04 0.535E+01   0.000E+00 0.000E+00 -.471E-01
   0.130E-11 0.131E-12 0.531E+01   -.135E-04 -.267E-04 -.535E+01   0.000E+00 0.000E+00 0.471E-01
   0.134E-11 0.358E-11 -.531E+01   -.135E-04 0.267E-04 0.535E+01   0.000E+00 0.000E+00 -.471E-01
   -.159E-12 0.299E-11 0.531E+01   0.135E-04 0.267E-04 -.535E+01   0.000E+00 0.000E+00 0.471E-01
   0.671E-12 0.192E-12 0.136E+02   -.107E-04 0.224E-04 -.136E+02   0.217E-18 -.434E-18 0.497E-03
   0.132E-11 -.192E-12 -.136E+02   0.107E-04 0.224E-04 0.136E+02   0.217E-18 -.434E-18 -.497E-03
   0.127E-11 0.226E-11 0.136E+02   0.107E-04 -.224E-04 -.136E+02   0.217E-18 -.434E-18 0.497E-03
   0.649E-12 0.253E-12 -.136E+02   -.107E-04 -.224E-04 0.136E+02   0.217E-18 -.434E-18 -.497E-03
   0.172E-10 0.945E-11 -.150E-11   -.497E-13 -.312E-13 0.444E-13   -.110E-15 -.173E-17 -.139E-16

 POSITION                                       TOTAL-FORCE (eV/Angst)
      1.25722      1.40598      1.23599        -0.000003      0.000000      0.000000
      3.73862      4.21795      1.23599         0.000003      0.000000     -0.000000
      1.24896      4.20098      8.65193         0.000000     -0.000003      0.000000
      3.74688      1.42296      8.65193         0.000000      0.000003      0.000000
      1.24070      1.40598      6.17995         0.000003      0.000000     -0.000000
      3.75515      4.21795      6.17995        -0.000003      0.000000      0.000000
      3.74688      1.38901      3.70797         0.000000     -0.000003      0.000000
      1.24896      4.23493      3.70797        -0.000000      0.000003     -0.000000
      0.00000      0.00000      4.95598         0.000000      0.000000      0.000008
      2.49792      0.00000      2.45995         0.000000      0.000000     -0.000008
      2.49792      2.81197      0.01203         0.000000      0.000000      0.000008
      0.00000      2.81197      7.40391         0.000000      0.000000     -0.000008
      0.00000      0.00000      9.88642         0.000000      0.000000     -0.000004
      2.49792      0.00000      7.41743         0.000000      0.000000      0.000004
      2.49792      2.81197      4.94246         0.000000      0.000000     -0.000004
      0.00000      2.81197      2.47347         0.000000      0.000000      0.000004
    total drift:                                0.000000      0.000000     -0.000000

  FREE ENERGIE OF THE ION-ELECTRON SYSTEM (eV)
  free  energy   TOTEN  =       -81.70220201 eV

  energy  without entropy=      -81.70220201  energy(sigma->0) =      -81.70220201

 writing wavefunctions

 total charge

[...]

 magnetization (x)

[...]

 magnetization (y)

[...]

 magnetization (z)

# of ion       s       p       d       tot
    1        0.000  -0.003   0.000  -0.003
    2        0.000  -0.003   0.000  -0.003
    3       -0.000   0.003   0.000   0.003
    4       -0.000   0.003   0.000   0.003
    5        0.000  -0.003   0.000  -0.003
    6        0.000  -0.003   0.000  -0.003
    7       -0.000   0.003   0.000   0.003
    8       -0.000   0.003   0.000   0.003
    9        0.000   0.002  -0.009  -0.007
   10       -0.000  -0.002   0.008   0.006
   11        0.000   0.002  -0.009  -0.007
   12       -0.000  -0.002   0.008   0.006
   13        0.020   0.055   3.627   3.702
   14       -0.020  -0.055  -3.627  -3.701
   15        0.020   0.055   3.627   3.702
   16       -0.020  -0.055  -3.627  -3.701
tot          0.000   0.000  -0.001  -0.000

 BZINTS: Fermi energy:  5.254178;172.000000 electrons
         Band energy:***********;  BLOECHL correction:  0.000000
 BZINTS: Fermi energy:  5.254178;172.000000 electrons
         Band energy:***********;  BLOECHL correction:  0.000000
 BZINTS: Fermi energy:  5.254178;172.000000 electrons
         Band energy:***********;  BLOECHL correction:  0.000000
 BZINTS: Fermi energy:  5.254178;172.000000 electrons
         Band energy:***********;  BLOECHL correction:  0.000000