 vasp.5.4.4.18Apr17-6-g9f103f2a35 (build Oct 30 2023 17:30:16) complex

 executed on             LinuxIFC date 2024.06.27  01:19:31

 INCAR:
 POTCAR:    PAW_PBE S 06Sep2000
 POTCAR:     PAW_PBE Cu_pv 06Sep2000
 POTCAR:     PAW_PBE Fe_pv 02Aug2007

   TITEL  = PAW_PBE S 06Sep2000
   POMASS =   32.066; ZVAL   =    6.000    mass and valenz
   ENMAX  =  258.689; ENMIN  =  194.016 eV

   TITEL  = PAW_PBE Cu_pv 06Sep2000
   POMASS =   63.546; ZVAL   =   17.000    mass and valenz
   ENMAX  =  368.648; ENMIN  =  276.486 eV

   TITEL  = PAW_PBE Fe_pv 02Aug2007
   POMASS =   55.847; ZVAL   =   14.000    mass and valenz
   ENMAX  =  293.238; ENMIN  =  219.928 eV

  PAW_PBE S 06Sep2000                   :
   PAW_PBE Cu_pv 06Sep2000              :
   PAW_PBE Fe_pv 02Aug2007              :

 POSCAR: Fe16 Cu16 S32
  positions in direct lattice
 exchange correlation table for  LEXCH =       14
   RHO(1)=    0.500       N(1)  =     2000
   RHO(2)=  100.500       N(2)  =     4000

 ion  position               nearest neighbor table
   1  0.126  0.125  0.123-  37 2.26  41 2.27  61 2.27  49 2.28
   2  0.626  0.125  0.123-  38 2.26  42 2.27  62 2.27  50 2.28
   3  0.126  0.625  0.123-  39 2.26  43 2.27  63 2.27  51 2.28
   4  0.626  0.625  0.123-  40 2.26  44 2.27  64 2.27  52 2.28
   5  0.374  0.375  0.123-  39 2.26  41 2.27  62 2.27  52 2.28
   6  0.874  0.375  0.123-  40 2.26  42 2.27  61 2.27  51 2.28
   7  0.374  0.875  0.123-  37 2.26  43 2.27  64 2.27  50 2.28
   8  0.874  0.875  0.123-  38 2.26  44 2.27  63 2.27  49 2.28
   9  0.125  0.374  0.873-  41 2.26  45 2.27  51 2.27  55 2.28
  10  0.625  0.374  0.873-  42 2.26  46 2.27  52 2.27  56 2.28
  11  0.125  0.874  0.873-  43 2.26  47 2.27  49 2.27  53 2.28
  12  0.625  0.874  0.873-  44 2.26  48 2.27  50 2.27  54 2.28
  13  0.375  0.126  0.873-  41 2.26  46 2.27  50 2.27  53 2.28
  14  0.875  0.126  0.873-  42 2.26  45 2.27  49 2.27  54 2.28
  15  0.375  0.626  0.873-  43 2.26  48 2.27  52 2.27  55 2.28
  16  0.875  0.626  0.873-  44 2.26  47 2.27  51 2.27  56 2.28
  17  0.124  0.125  0.623-  45 2.26  33 2.27  53 2.27  57 2.28
  18  0.624  0.125  0.623-  46 2.26  34 2.27  54 2.27  58 2.28
  19  0.124  0.625  0.623-  47 2.26  35 2.27  55 2.27  59 2.28
  20  0.624  0.625  0.623-  48 2.26  36 2.27  56 2.27  60 2.28
  21  0.376  0.375  0.623-  46 2.26  36 2.27  55 2.27  57 2.28
  22  0.876  0.375  0.623-  45 2.26  35 2.27  56 2.27  58 2.28
  23  0.376  0.875  0.623-  48 2.26  34 2.27  53 2.27  59 2.28
  24  0.876  0.875  0.623-  47 2.26  33 2.27  54 2.27  60 2.28
  25  0.375  0.124  0.373-  34 2.26  37 2.27  57 2.27  62 2.28
  26  0.875  0.124  0.373-  33 2.26  38 2.27  58 2.27  61 2.28
  27  0.375  0.624  0.373-  36 2.26  39 2.27  59 2.27  64 2.28
  28  0.875  0.624  0.373-  35 2.26  40 2.27  60 2.27  63 2.28
  29  0.125  0.376  0.373-  35 2.26  39 2.27  57 2.27  61 2.28
  30  0.625  0.376  0.373-  36 2.26  40 2.27  58 2.27  62 2.28
  31  0.125  0.876  0.373-  33 2.26  37 2.27  59 2.27  63 2.28
  32  0.625  0.876  0.373-  34 2.26  38 2.27  60 2.27  64 2.28
  33  0.000  0.000  0.502-  26 2.26  31 2.26  17 2.27  24 2.27
  34  0.500  0.000  0.502-  25 2.26  32 2.26  18 2.27  23 2.27
  35  0.000  0.500  0.502-  28 2.26  29 2.26  19 2.27  22 2.27
  36  0.500  0.500  0.502-  27 2.26  30 2.26  20 2.27  21 2.27
  37  0.250  0.000  0.252-   1 2.26   7 2.26  25 2.27  31 2.27
  38  0.750  0.000  0.252-   2 2.26   8 2.26  26 2.27  32 2.27
  39  0.250  0.500  0.252-   3 2.26   5 2.26  27 2.27  29 2.27
  40  0.750  0.500  0.252-   4 2.26   6 2.26  28 2.27  30 2.27
  41  0.250  0.250  0.002-   9 2.26  13 2.26   1 2.27   5 2.27
  42  0.750  0.250  0.002-  10 2.26  14 2.26   2 2.27   6 2.27
  43  0.250  0.750  0.002-  11 2.26  15 2.26   3 2.27   7 2.27
  44  0.750  0.750  0.002-  12 2.26  16 2.26   4 2.27   8 2.27
  45  0.000  0.250  0.752-  17 2.26  22 2.26   9 2.27  14 2.27
  46  0.500  0.250  0.752-  18 2.26  21 2.26  10 2.27  13 2.27
  47  0.000  0.750  0.752-  19 2.26  24 2.26  11 2.27  16 2.27
  48  0.500  0.750  0.752-  20 2.26  23 2.26  12 2.27  15 2.27
  49  0.000  0.000  0.002-  11 2.27  14 2.27   1 2.28   8 2.28
  50  0.500  0.000  0.002-  12 2.27  13 2.27   2 2.28   7 2.28
  51  0.000  0.500  0.002-   9 2.27  16 2.27   3 2.28   6 2.28
  52  0.500  0.500  0.002-  10 2.27  15 2.27   4 2.28   5 2.28
  53  0.250  0.000  0.752-  17 2.27  23 2.27  11 2.28  13 2.28
  54  0.750  0.000  0.752-  18 2.27  24 2.27  12 2.28  14 2.28
  55  0.250  0.500  0.752-  19 2.27  21 2.27   9 2.28  15 2.28
  56  0.750  0.500  0.752-  20 2.27  22 2.27  10 2.28  16 2.28
  57  0.250  0.250  0.502-  25 2.27  29 2.27  17 2.28  21 2.28
  58  0.750  0.250  0.502-  26 2.27  30 2.27  18 2.28  22 2.28
  59  0.250  0.750  0.502-  27 2.27  31 2.27  19 2.28  23 2.28
  60  0.750  0.750  0.502-  28 2.27  32 2.27  20 2.28  24 2.28
  61  0.000  0.250  0.252-   1 2.27   6 2.27  26 2.28  29 2.28
  62  0.500  0.250  0.252-   2 2.27   5 2.27  25 2.28  30 2.28
  63  0.000  0.750  0.252-   3 2.27   8 2.27  28 2.28  31 2.28
  64  0.500  0.750  0.252-   4 2.27   7 2.27  27 2.28  32 2.28

  LATTYP: Found a base centered orthorhombic cell.
 ALAT       =    14.6012275298
 B/A-ratio  =     1.0355083046
 C/A-ratio  =     0.7135611700

  Lattice vectors:

 A1 = (  10.5079320000,   0.1833050000,   0.0000000000)
 A2 = (  -0.1833050000, -10.5079320000,   0.0000000000)
 A3 = (   0.0000000000,   0.0000000000, -10.4188690000)

Analysis of symmetry for initial positions (statically):
 Subroutine PRICEL returns following result:

  LATTYP: Found a face centered orthorhombic cell.
 ALAT       =     7.3006137649
 B/A-ratio  =     1.0355083046
 C/A-ratio  =     1.4271223401

[...]

   8 primitive cells build up your supercell.

 Routine SETGRP: Setting up the symmetry group for a
 base centered orthorhombic supercell.

 Subroutine GETGRP returns: Found  4 space group operations
 (whereof  2 operations were pure point group operations)
 out of a pool of  8 trial point group operations.

The static configuration has the point symmetry C_2 .
 The point group associated with its full space group is C_2v.

Analysis of symmetry for dynamics (positions and initial velocities):
 Subroutine PRICEL returns following result:

[...]

The dynamic configuration has the point symmetry C_2 .
 The point group associated with its full space group is C_2v.

Analysis of structural, dynamic, and magnetic symmetry:
 Subroutine PRICEL returns following result:

  LATTYP: Found a face centered orthorhombic cell.
 ALAT       =     7.3006137649
 B/A-ratio  =     1.0355083046
 C/A-ratio  =     1.4271223401

  Lattice vectors:

 A1 = (  -2.6728092500,  -2.6728092500,   5.2094345000)
 A2 = (  -2.5811567500,   2.5811567500,   5.2094345000)
 A3 = (  -5.2539660000,  -0.0916525000,   0.0000000000)

   8 primitive cells build up your supercell.

 Routine SETGRP: Setting up the symmetry group for a
 base centered orthorhombic supercell.

 Subroutine GETGRP returns: Found  4 space group operations
 (whereof  2 operations were pure point group operations)
 out of a pool of  8 trial point group operations.

The magnetic configuration has the point symmetry C_2 .
 The point group associated with its full space group is C_2v.

 Subroutine INISYM returns: Found  4 space group operations
 (whereof  2 operations are pure point group operations),
 and found     8 'primitive' translations

 KPOINTS: Automatic mesh

Automatic generation of k-mesh.
Space group operators:
 irot       det(A)        alpha          n_x          n_y          n_z        tau_x        tau_y        tau_z
    1     1.000000     0.000000     1.000000     0.000000     0.000000     0.000000     0.000000     0.000000
    2     1.000000   180.000000     0.000000     0.000000     1.000000     0.000000     0.000000     0.000000
    3    -1.000000   180.000000     0.707107     0.707107     0.000000    -0.750000    -0.000000     0.750000
    4    -1.000000   180.000000     0.707107    -0.707107     0.000000    -0.750000    -0.000000     0.750000

 Subroutine IBZKPT returns following result:

 Found     21 irreducible k-points:

 Following reciprocal coordinates:
            Coordinates               Weight
  0.000000  0.000000  0.000000      1.000000
  0.250000 -0.000000  0.000000      4.000000
  0.500000 -0.000000  0.000000      2.000000
  0.250000  0.250000  0.000000      2.000000
  0.500000  0.250000  0.000000      4.000000
 -0.250000  0.250000  0.000000      2.000000
  0.500000  0.500000  0.000000      1.000000
  0.000000  0.000000  0.250000      2.000000
  0.250000 -0.000000  0.250000      8.000000
  0.500000 -0.000000  0.250000      4.000000
  0.250000  0.250000  0.250000      4.000000
  0.500000  0.250000  0.250000      8.000000
 -0.250000  0.250000  0.250000      4.000000
  0.500000  0.500000  0.250000      2.000000
  0.000000  0.000000  0.500000      1.000000
  0.250000 -0.000000  0.500000      4.000000
  0.500000 -0.000000  0.500000      2.000000
  0.250000  0.250000  0.500000      2.000000
  0.500000  0.250000  0.500000      4.000000
 -0.250000  0.250000  0.500000      2.000000
  0.500000  0.500000  0.500000      1.000000

 Following cartesian coordinates:
            Coordinates               Weight
  0.000000  0.000000  0.000000      1.000000
  0.023799 -0.000415  0.000000      4.000000
  0.047598 -0.000830  0.000000      2.000000
  0.023384  0.023384  0.000000      2.000000
  0.047182  0.022968  0.000000      4.000000
 -0.024214  0.024214  0.000000      2.000000
  0.046767  0.046767  0.000000      1.000000
  0.000000  0.000000  0.023995      2.000000
  0.023799 -0.000415  0.023995      8.000000
  0.047598 -0.000830  0.023995      4.000000
  0.023384  0.023384  0.023995      4.000000
  0.047182  0.022968  0.023995      8.000000
 -0.024214  0.024214  0.023995      4.000000
  0.046767  0.046767  0.023995      2.000000
  0.000000  0.000000  0.047990      1.000000
  0.023799 -0.000415  0.047990      4.000000
  0.047598 -0.000830  0.047990      2.000000
  0.023384  0.023384  0.047990      2.000000
  0.047182  0.022968  0.047990      4.000000
 -0.024214  0.024214  0.047990      2.000000
  0.046767  0.046767  0.047990      1.000000

 TETIRR: Found     96 inequivalent tetrahedra from      384

 Subroutine IBZKPT_HF returns following result:

 Found     64 k-points in 1st BZ
 the following     64 k-points will be used (e.g. in the exchange kernel)
 Following reciprocal coordinates:   # in IRBZ
  0.000000  0.000000  0.000000    0.01562500   1 t-inv F
  0.250000 -0.000000  0.000000    0.01562500   2 t-inv F
  0.500000 -0.000000  0.000000    0.01562500   3 t-inv F
  0.250000  0.250000  0.000000    0.01562500   4 t-inv F
  0.500000  0.250000  0.000000    0.01562500   5 t-inv F
 -0.250000  0.250000  0.000000    0.01562500   6 t-inv F
  0.500000  0.500000  0.000000    0.01562500   7 t-inv F
  0.000000  0.000000  0.250000    0.01562500   8 t-inv F
  0.250000 -0.000000  0.250000    0.01562500   9 t-inv F
  0.500000 -0.000000  0.250000    0.01562500  10 t-inv F
  0.250000  0.250000  0.250000    0.01562500  11 t-inv F
  0.500000  0.250000  0.250000    0.01562500  12 t-inv F
 -0.250000  0.250000  0.250000    0.01562500  13 t-inv F
  0.500000  0.500000  0.250000    0.01562500  14 t-inv F
[...]
   0.421E+02 -.287E+00 0.110E+02   -.429E+02 0.279E+00 -.111E+02   0.866E+00 0.685E-02 0.921E-01   -.142E-05 0.221E-05 0.126E-04
   -.421E+02 0.287E+00 0.110E+02   0.429E+02 -.279E+00 -.111E+02   -.866E+00 -.685E-02 0.921E-01   0.142E-05 -.221E-05 0.126E-04
   -.421E+02 0.287E+00 0.110E+02   0.429E+02 -.279E+00 -.111E+02   -.866E+00 -.685E-02 0.921E-01   0.142E-05 -.221E-05 0.126E-04
   -.421E+02 0.287E+00 0.110E+02   0.429E+02 -.279E+00 -.111E+02   -.866E+00 -.685E-02 0.921E-01   0.142E-05 -.221E-05 0.126E-04
   -.421E+02 0.287E+00 0.110E+02   0.429E+02 -.279E+00 -.111E+02   -.866E+00 -.685E-02 0.921E-01   0.142E-05 -.221E-05 0.126E-04
   0.287E+00 -.421E+02 0.110E+02   -.279E+00 0.429E+02 -.111E+02   -.685E-02 -.866E+00 0.921E-01   -.221E-05 0.142E-05 0.126E-04
   0.287E+00 -.421E+02 0.110E+02   -.279E+00 0.429E+02 -.111E+02   -.685E-02 -.866E+00 0.921E-01   -.221E-05 0.142E-05 0.126E-04
   0.287E+00 -.421E+02 0.110E+02   -.279E+00 0.429E+02 -.111E+02   -.685E-02 -.866E+00 0.921E-01   -.221E-05 0.142E-05 0.126E-04
   0.287E+00 -.421E+02 0.110E+02   -.279E+00 0.429E+02 -.111E+02   -.685E-02 -.866E+00 0.921E-01   -.221E-05 0.142E-05 0.126E-04
   -.287E+00 0.421E+02 0.110E+02   0.279E+00 -.429E+02 -.111E+02   0.685E-02 0.866E+00 0.921E-01   0.221E-05 -.142E-05 0.126E-04
   -.287E+00 0.421E+02 0.110E+02   0.279E+00 -.429E+02 -.111E+02   0.685E-02 0.866E+00 0.921E-01   0.221E-05 -.142E-05 0.126E-04
   -.287E+00 0.421E+02 0.110E+02   0.279E+00 -.429E+02 -.111E+02   0.685E-02 0.866E+00 0.921E-01   0.221E-05 -.142E-05 0.126E-04
   -.287E+00 0.421E+02 0.110E+02   0.279E+00 -.429E+02 -.111E+02   0.685E-02 0.866E+00 0.921E-01   0.221E-05 -.142E-05 0.126E-04
   -.421E+02 0.287E+00 0.110E+02   0.429E+02 -.279E+00 -.111E+02   -.866E+00 -.685E-02 0.921E-01   0.142E-05 -.221E-05 0.126E-04
   -.421E+02 0.287E+00 0.110E+02   0.429E+02 -.279E+00 -.111E+02   -.866E+00 -.685E-02 0.921E-01   0.142E-05 -.221E-05 0.126E-04
   -.421E+02 0.287E+00 0.110E+02   0.429E+02 -.279E+00 -.111E+02   -.866E+00 -.685E-02 0.921E-01   0.142E-05 -.221E-05 0.126E-04
   -.421E+02 0.287E+00 0.110E+02   0.429E+02 -.279E+00 -.111E+02   -.866E+00 -.685E-02 0.921E-01   0.142E-05 -.221E-05 0.126E-04
   0.421E+02 -.287E+00 0.110E+02   -.429E+02 0.279E+00 -.111E+02   0.866E+00 0.685E-02 0.921E-01   -.142E-05 0.221E-05 0.126E-04
   0.421E+02 -.287E+00 0.110E+02   -.429E+02 0.279E+00 -.111E+02   0.866E+00 0.685E-02 0.921E-01   -.142E-05 0.221E-05 0.126E-04
   0.421E+02 -.287E+00 0.110E+02   -.429E+02 0.279E+00 -.111E+02   0.866E+00 0.685E-02 0.921E-01   -.142E-05 0.221E-05 0.126E-04
   0.421E+02 -.287E+00 0.110E+02   -.429E+02 0.279E+00 -.111E+02   0.866E+00 0.685E-02 0.921E-01   -.142E-05 0.221E-05 0.126E-04
   0.287E+00 -.421E+02 0.110E+02   -.279E+00 0.429E+02 -.111E+02   -.685E-02 -.866E+00 0.921E-01   -.221E-05 0.142E-05 0.126E-04
   0.287E+00 -.421E+02 0.110E+02   -.279E+00 0.429E+02 -.111E+02   -.685E-02 -.866E+00 0.921E-01   -.221E-05 0.142E-05 0.126E-04
   0.287E+00 -.421E+02 0.110E+02   -.279E+00 0.429E+02 -.111E+02   -.685E-02 -.866E+00 0.921E-01   -.221E-05 0.142E-05 0.126E-04
   0.287E+00 -.421E+02 0.110E+02   -.279E+00 0.429E+02 -.111E+02   -.685E-02 -.866E+00 0.921E-01   -.221E-05 0.142E-05 0.126E-04
   -.287E+00 0.421E+02 0.110E+02   0.279E+00 -.429E+02 -.111E+02   0.685E-02 0.866E+00 0.921E-01   0.221E-05 -.142E-05 0.126E-04
   -.287E+00 0.421E+02 0.110E+02   0.279E+00 -.429E+02 -.111E+02   0.685E-02 0.866E+00 0.921E-01   0.221E-05 -.142E-05 0.126E-04
   -.287E+00 0.421E+02 0.110E+02   0.279E+00 -.429E+02 -.111E+02   0.685E-02 0.866E+00 0.921E-01   0.221E-05 -.142E-05 0.126E-04
   -.287E+00 0.421E+02 0.110E+02   0.279E+00 -.429E+02 -.111E+02   0.685E-02 0.866E+00 0.921E-01   0.221E-05 -.142E-05 0.126E-04
   -.219E-06 0.319E-07 -.129E+02   0.924E-13 0.121E-12 0.124E+02   0.737E-19 0.136E-19 0.523E+00   0.156E-12 0.188E-12 0.538E-05
   -.219E-06 0.319E-07 -.129E+02   0.153E-12 0.114E-12 0.124E+02   -.123E-19 -.136E-18 0.523E+00   -.738E-12 0.188E-12 0.538E-05
   -.219E-06 0.320E-07 -.129E+02   0.639E-13 0.128E-12 0.124E+02   0.339E-19 0.678E-19 0.523E+00   0.184E-12 -.170E-12 0.538E-05
   -.219E-06 0.319E-07 -.129E+02   0.675E-13 0.199E-12 0.124E+02   0.258E-19 0.542E-19 0.523E+00   -.704E-12 -.154E-12 0.538E-05
   0.320E-07 -.219E-06 -.129E+02   0.568E-13 0.853E-13 0.124E+02   -.396E-19 0.108E-18 0.523E+00   -.384E-12 0.284E-12 0.538E-05
   0.320E-07 -.219E-06 -.129E+02   0.114E-12 0.853E-13 0.124E+02   0.321E-19 0.809E-19 0.523E+00   -.297E-12 0.194E-12 0.538E-05
   0.320E-07 -.219E-06 -.129E+02   0.853E-13 0.853E-13 0.124E+02   -.412E-19 -.784E-19 0.523E+00   -.409E-12 -.119E-12 0.538E-05
   0.320E-07 -.219E-06 -.129E+02   0.114E-12 0.853E-13 0.124E+02   -.736E-19 -.440E-19 0.523E+00   -.290E-12 -.128E-12 0.538E-05
   -.219E-06 0.320E-07 -.129E+02   0.497E-13 -.431E-13 0.124E+02   0.127E-18 0.949E-19 0.523E+00   -.567E-12 0.306E-12 0.538E-05
   -.219E-06 0.320E-07 -.129E+02   0.782E-13 0.848E-13 0.124E+02   0.470E-19 -.136E-19 0.523E+00   -.468E-12 0.287E-12 0.538E-05
   -.219E-06 0.320E-07 -.129E+02   0.853E-13 0.129E-13 0.124E+02   0.127E-18 -.813E-19 0.523E+00   -.529E-12 -.297E-12 0.538E-05
   -.219E-06 0.320E-07 -.129E+02   0.114E-12 0.577E-14 0.124E+02   0.326E-19 0.000E+00 0.523E+00   -.396E-12 -.365E-12 0.538E-05
   0.319E-07 -.219E-06 -.129E+02   0.344E-13 -.161E-13 0.124E+02   0.504E-20 -.352E-19 0.523E+00   0.433E-12 0.433E-12 0.538E-05
   0.320E-07 -.219E-06 -.129E+02   0.656E-13 -.730E-13 0.124E+02   -.632E-19 -.193E-18 0.523E+00   -.702E-12 0.402E-12 0.538E-05
   0.319E-07 -.219E-06 -.129E+02   0.628E-13 -.123E-12 0.124E+02   -.495E-19 0.381E-19 0.523E+00   0.322E-12 -.413E-12 0.538E-05
   0.320E-07 -.219E-06 -.129E+02   0.940E-13 -.984E-14 0.124E+02   0.819E-19 -.110E-19 0.523E+00   -.554E-12 -.357E-12 0.538E-05
   0.500E-07 -.779E-07 -.104E+02   -.377E-13 -.117E-12 0.983E+01   0.457E-18 0.000E+00 0.623E+00   0.414E-12 0.235E-12 0.770E-05
   0.500E-07 -.779E-07 -.104E+02   -.340E-13 -.853E-13 0.983E+01   0.468E-18 -.390E-17 0.623E+00   -.514E-12 0.182E-12 0.770E-05
   0.500E-07 -.779E-07 -.104E+02   -.555E-13 -.153E-12 0.983E+01   -.149E-18 0.325E-18 0.623E+00   0.377E-12 0.130E-13 0.770E-05
   0.500E-07 -.780E-07 -.104E+02   -.659E-13 -.128E-12 0.983E+01   -.217E-18 0.867E-18 0.623E+00   -.516E-12 -.219E-13 0.770E-05
   -.779E-07 0.500E-07 -.104E+02   -.103E-12 -.711E-13 0.983E+01   -.227E-17 -.976E-18 0.623E+00   -.431E-12 0.227E-12 0.770E-05
   -.779E-07 0.500E-07 -.104E+02   -.107E-12 -.711E-13 0.983E+01   0.110E-17 0.217E-18 0.623E+00   -.268E-12 0.121E-12 0.770E-05
   -.779E-07 0.500E-07 -.104E+02   -.128E-12 0.355E-14 0.983E+01   0.549E-18 0.325E-18 0.623E+00   -.415E-12 -.835E-13 0.770E-05
   -.779E-07 0.500E-07 -.104E+02   -.107E-12 -.110E-12 0.983E+01   -.678E-19 -.108E-18 0.623E+00   -.235E-12 -.184E-14 0.770E-05
   0.500E-07 -.779E-07 -.104E+02   -.124E-12 -.471E-13 0.983E+01   0.413E-18 0.184E-17 0.623E+00   -.281E-12 0.387E-12 0.770E-05
   0.500E-07 -.780E-07 -.104E+02   -.959E-13 -.107E-12 0.983E+01   -.147E-17 -.141E-17 0.623E+00   -.931E-13 0.391E-12 0.770E-05
   0.500E-07 -.779E-07 -.104E+02   -.995E-13 0.526E-13 0.983E+01   -.116E-17 -.759E-18 0.623E+00   -.283E-12 -.247E-12 0.770E-05
   0.500E-07 -.779E-07 -.104E+02   -.995E-13 -.611E-13 0.983E+01   -.220E-18 0.163E-17 0.623E+00   -.841E-13 -.233E-12 0.770E-05
   -.779E-07 0.500E-07 -.104E+02   -.155E-12 -.807E-13 0.983E+01   0.108E-17 -.325E-18 0.623E+00   0.230E-12 0.307E-12 0.770E-05
   -.779E-07 0.499E-07 -.104E+02   -.165E-12 0.329E-13 0.983E+01   -.141E-17 0.217E-18 0.623E+00   -.604E-12 0.323E-12 0.770E-05
   -.779E-07 0.500E-07 -.104E+02   -.194E-12 -.668E-13 0.983E+01   -.143E-17 -.130E-17 0.623E+00   0.210E-12 -.239E-12 0.770E-05
   -.779E-07 0.500E-07 -.104E+02   -.176E-12 -.669E-13 0.983E+01   0.202E-17 0.152E-17 0.623E+00   -.577E-12 -.141E-12 0.770E-05
   -.156E-05 -.156E-05 -.213E+02   -.820E-13 0.192E-13 0.441E-12   0.769E-15 0.553E-15 0.213E+02   -.792E-11 0.388E-12 0.612E-03

 POSITION                                       TOTAL-FORCE (eV/Angst)
      1.34823      1.33851      1.28283         0.003940     -0.001385     -0.011003
      6.60219      1.43016      1.28283         0.003940     -0.001385     -0.011003
      1.43988      6.59248      1.28283         0.003940     -0.001385     -0.011003
      6.69385      6.68413      1.28283         0.003940     -0.001385     -0.011003
      3.99739      4.00711      1.28283        -0.003940      0.001385     -0.011003
      9.25136      4.09876      1.28283        -0.003940      0.001385     -0.011003
      4.08904      9.26107      1.28283        -0.003940      0.001385     -0.011003
      9.34301      9.35272      1.28283        -0.003940      0.001385     -0.011003
      1.38012      3.95156      9.09699         0.001385     -0.003940     -0.011003
      6.63409      4.04322      9.09699         0.001385     -0.003940     -0.011003
      1.47178      9.20553      9.09699         0.001385     -0.003940     -0.011003
      6.72574      9.29718      9.09699         0.001385     -0.003940     -0.011003
      3.96550      1.39405      9.09699        -0.001385      0.003940     -0.011003
      9.21946      1.48571      9.09699        -0.001385      0.003940     -0.011003
      4.05715      6.64802      9.09699        -0.001385      0.003940     -0.011003
      9.31111      6.73967      9.09699        -0.001385      0.003940     -0.011003
      1.32458      1.33430      6.49227        -0.003940      0.001385     -0.011003
      6.57855      1.42595      6.49227        -0.003940      0.001385     -0.011003
      1.41623      6.58826      6.49227        -0.003940      0.001385     -0.011003
      6.67020      6.67992      6.49227        -0.003940      0.001385     -0.011003
      4.02104      4.01132      6.49227         0.003940     -0.001385     -0.011003
      9.27500      4.10297      6.49227         0.003940     -0.001385     -0.011003
      4.11269      9.26529      6.49227         0.003940     -0.001385     -0.011003
      9.36666      9.35694      6.49227         0.003940     -0.001385     -0.011003
      3.96128      1.37041      3.88755         0.001385     -0.003940     -0.011003
      9.21525      1.46206      3.88755         0.001385     -0.003940     -0.011003
      4.05293      6.62437      3.88755         0.001385     -0.003940     -0.011003
      9.30690      6.71603      3.88755         0.001385     -0.003940     -0.011003
      1.38434      3.97521      3.88755        -0.001385      0.003940     -0.011003
      6.63830      4.06686      3.88755        -0.001385      0.003940     -0.011003
      1.47599      9.22918      3.88755        -0.001385      0.003940     -0.011003
      6.72996      9.32083      3.88755        -0.001385      0.003940     -0.011003
      0.00000      0.00000      5.22652         0.000000      0.000000      0.006591
      5.25397      0.09165      5.22652         0.000000      0.000000      0.006591
      0.09165      5.25397      5.22652         0.000000      0.000000      0.006591
      5.34562      5.34562      5.22652         0.000000      0.000000      0.006591
      2.62698      0.04583      2.62180         0.000000      0.000000      0.006591
      7.88095      0.13748      2.62180         0.000000      0.000000      0.006591
      2.71864      5.29979      2.62180         0.000000      0.000000      0.006591
      7.97260      5.39144      2.62180         0.000000      0.000000      0.006591
      2.67281      2.67281      0.01709         0.000000      0.000000      0.006591
      7.92678      2.76446      0.01709         0.000000      0.000000      0.006591
      2.76446      7.92678      0.01709         0.000000      0.000000      0.006591
      8.01843      8.01843      0.01709         0.000000      0.000000      0.006591
      0.04583      2.62698      7.83124         0.000000      0.000000      0.006591
      5.29979      2.71864      7.83124         0.000000      0.000000      0.006591
      0.13748      7.88095      7.83124         0.000000      0.000000      0.006591
      5.39144      7.97260      7.83124         0.000000      0.000000      0.006591
      0.00000      0.00000      0.02197         0.000000      0.000000      0.015415
      5.25397      0.09165      0.02197         0.000000      0.000000      0.015415
      0.09165      5.25397      0.02197         0.000000      0.000000      0.015415
      5.34562      5.34562      0.02197         0.000000      0.000000      0.015415
      2.62698      0.04583      7.83613         0.000000      0.000000      0.015415
      7.88095      0.13748      7.83613         0.000000      0.000000      0.015415
      2.71864      5.29979      7.83613         0.000000      0.000000      0.015415
      7.97260      5.39144      7.83613         0.000000      0.000000      0.015415
      2.67281      2.67281      5.23141         0.000000      0.000000      0.015415
      7.92678      2.76446      5.23141         0.000000      0.000000      0.015415
      2.76446      7.92678      5.23141         0.000000      0.000000      0.015415
      8.01843      8.01843      5.23141         0.000000      0.000000      0.015415
      0.04583      2.62698      2.62669         0.000000      0.000000      0.015415
      5.29979      2.71864      2.62669         0.000000      0.000000      0.015415
      0.13748      7.88095      2.62669         0.000000      0.000000      0.015415
      5.39144      7.97260      2.62669         0.000000      0.000000      0.015415
    total drift:                               -0.000002     -0.000002     -0.034823

  FREE ENERGIE OF THE ION-ELECTRON SYSTEM (eV)
  free  energy   TOTEN  =      -327.99646546 eV

  energy  without entropy=     -327.99646546  energy(sigma->0) =     -327.99646546

 writing wavefunctions

 total charge

[...]

 magnetization (x)

# of ion       s       p       d       tot
    1       -0.000  -0.009   0.000  -0.009
    2       -0.000  -0.009   0.000  -0.009
    3       -0.000  -0.009   0.000  -0.009
    4       -0.000  -0.009   0.000  -0.009
    5       -0.000  -0.009   0.000  -0.009
    6       -0.000  -0.009   0.000  -0.009
    7       -0.000  -0.009   0.000  -0.009
    8       -0.000  -0.009   0.000  -0.009
    9        0.000   0.009   0.000   0.009
   10        0.000   0.009   0.000   0.009
   11        0.000   0.009   0.000   0.009
   12        0.000   0.009   0.000   0.009
   13        0.000   0.009   0.000   0.009
   14        0.000   0.009   0.000   0.009
   15        0.000   0.009   0.000   0.009
   16        0.000   0.009   0.000   0.009
   17       -0.000  -0.009   0.000  -0.009
   18       -0.000  -0.009   0.000  -0.009
   19       -0.000  -0.009   0.000  -0.009
   20       -0.000  -0.009   0.000  -0.009
   21       -0.000  -0.009   0.000  -0.009
   22       -0.000  -0.009   0.000  -0.009
   23       -0.000  -0.009   0.000  -0.009
   24       -0.000  -0.009   0.000  -0.009
   25        0.000   0.009   0.000   0.009
   26        0.000   0.009   0.000   0.009
   27        0.000   0.009   0.000   0.009
   28        0.000   0.009   0.000   0.009
   29        0.000   0.009   0.000   0.009
   30        0.000   0.009   0.000   0.009
   31        0.000   0.009   0.000   0.009
   32        0.000   0.009   0.000   0.009
   33        0.000   0.000  -0.000   0.000
   34        0.000   0.000  -0.000   0.000
   35        0.000   0.000  -0.000   0.000
   36        0.000   0.000  -0.000   0.000
   37       -0.000  -0.000   0.000  -0.001
   38       -0.000  -0.000   0.000  -0.001
   39       -0.000  -0.000   0.000  -0.001
   40       -0.000  -0.000   0.000  -0.001
   41        0.000   0.000  -0.000   0.000
   42        0.000   0.000  -0.000   0.000
   43        0.000   0.000  -0.000   0.000
   44        0.000   0.000  -0.000   0.000
   45       -0.000  -0.000   0.000  -0.001
   46       -0.000  -0.000   0.000  -0.001
   47       -0.000  -0.000   0.000  -0.001
   48       -0.000  -0.000   0.000  -0.001
   49        0.020   0.054   3.670   3.744
   50        0.020   0.054   3.670   3.744
   51        0.020   0.054   3.670   3.744
   52        0.020   0.054   3.670   3.744
   53       -0.020  -0.054  -3.670  -3.743
   54       -0.020  -0.054  -3.670  -3.743
   55       -0.020  -0.054  -3.670  -3.743
   56       -0.020  -0.054  -3.670  -3.743
   57        0.020   0.054   3.670   3.744
   58        0.020   0.054   3.670   3.744
   59        0.020   0.054   3.670   3.744
   60        0.020   0.054   3.670   3.744
   61       -0.020  -0.054  -3.670  -3.743
   62       -0.020  -0.054  -3.670  -3.743
   63       -0.020  -0.054  -3.670  -3.743
   64       -0.020  -0.054  -3.670  -3.743
tot         -0.001   0.001  -0.000  -0.000

 BZINTS: Fermi energy:  4.944744;688.000000 electrons
         Band energy:***********;  BLOECHL correction:  0.000000