 vasp.5.4.4.18Apr17-6-g9f103f2a35 (build Oct 30 2023 17:30:16) complex

 executed on             LinuxIFC date 2024.06.28  18:24:30

 INCAR:
 POTCAR:    PAW_PBE S 06Sep2000
 POTCAR:     PAW_PBE Cu_pv 06Sep2000
 POTCAR:     PAW_PBE Fe_pv 02Aug2007

   TITEL  = PAW_PBE S 06Sep2000
   POMASS =   32.066; ZVAL   =    6.000    mass and valenz
   ENMAX  =  258.689; ENMIN  =  194.016 eV

   TITEL  = PAW_PBE Cu_pv 06Sep2000
   POMASS =   63.546; ZVAL   =   17.000    mass and valenz
   ENMAX  =  368.648; ENMIN  =  276.486 eV

   TITEL  = PAW_PBE Fe_pv 02Aug2007
   POMASS =   55.847; ZVAL   =   14.000    mass and valenz
   ENMAX  =  293.238; ENMIN  =  219.928 eV

  PAW_PBE S 06Sep2000                   :
   PAW_PBE Cu_pv 06Sep2000              :
   PAW_PBE Fe_pv 02Aug2007              :

 POSCAR: Fe16 Cu16 S32
  positions in direct lattice
 exchange correlation table for  LEXCH =       14
   RHO(1)=    0.500       N(1)  =     2000
   RHO(2)=  100.500       N(2)  =     4000

 ion  position               nearest neighbor table
   1  0.126  0.125  0.125-  37 2.26  41 2.26  61 2.28  49 2.28
   2  0.626  0.125  0.125-  38 2.26  42 2.26  62 2.28  50 2.28
   3  0.126  0.625  0.125-  39 2.26  43 2.26  63 2.28  51 2.28
   4  0.626  0.625  0.125-  40 2.26  44 2.26  64 2.28  52 2.28
   5  0.374  0.375  0.125-  39 2.26  41 2.26  62 2.28  52 2.28
   6  0.874  0.375  0.125-  40 2.26  42 2.26  61 2.28  51 2.28
   7  0.374  0.875  0.125-  37 2.26  43 2.26  64 2.28  50 2.28
   8  0.874  0.875  0.125-  38 2.26  44 2.26  63 2.28  49 2.28
   9  0.125  0.374  0.875-  41 2.26  45 2.26  51 2.28  55 2.28
  10  0.625  0.374  0.875-  42 2.26  46 2.26  52 2.28  56 2.28
  11  0.125  0.874  0.875-  43 2.26  47 2.26  49 2.28  53 2.28
  12  0.625  0.874  0.875-  44 2.26  48 2.26  50 2.28  54 2.28
  13  0.375  0.126  0.875-  41 2.26  46 2.26  50 2.28  53 2.28
  14  0.875  0.126  0.875-  42 2.26  45 2.26  49 2.28  54 2.28
  15  0.375  0.626  0.875-  43 2.26  48 2.26  52 2.28  55 2.28
  16  0.875  0.626  0.875-  44 2.26  47 2.26  51 2.28  56 2.28
  17  0.124  0.125  0.625-  45 2.26  33 2.26  53 2.28  57 2.28
  18  0.624  0.125  0.625-  46 2.26  34 2.26  54 2.28  58 2.28
  19  0.124  0.625  0.625-  47 2.26  35 2.26  55 2.28  59 2.28
  20  0.624  0.625  0.625-  48 2.26  36 2.26  56 2.28  60 2.28
  21  0.376  0.375  0.625-  46 2.26  36 2.26  55 2.28  57 2.28
  22  0.876  0.375  0.625-  45 2.26  35 2.26  56 2.28  58 2.28
  23  0.376  0.875  0.625-  48 2.26  34 2.26  53 2.28  59 2.28
  24  0.876  0.875  0.625-  47 2.26  33 2.26  54 2.28  60 2.28
  25  0.375  0.124  0.375-  34 2.26  37 2.26  57 2.28  62 2.28
  26  0.875  0.124  0.375-  33 2.26  38 2.26  58 2.28  61 2.28
  27  0.375  0.624  0.375-  36 2.26  39 2.26  59 2.28  64 2.28
  28  0.875  0.624  0.375-  35 2.26  40 2.26  60 2.28  63 2.28
  29  0.125  0.376  0.375-  35 2.26  39 2.26  57 2.28  61 2.28
  30  0.625  0.376  0.375-  36 2.26  40 2.26  58 2.28  62 2.28
  31  0.125  0.876  0.375-  33 2.26  37 2.26  59 2.28  63 2.28
  32  0.625  0.876  0.375-  34 2.26  38 2.26  60 2.28  64 2.28
  33  0.000  0.000  0.500-  26 2.26  31 2.26  17 2.26  24 2.26
  34  0.500  0.000  0.500-  25 2.26  32 2.26  18 2.26  23 2.26
  35  0.000  0.500  0.500-  28 2.26  29 2.26  19 2.26  22 2.26
  36  0.500  0.500  0.500-  27 2.26  30 2.26  20 2.26  21 2.26
  37  0.250  0.000  0.250-   1 2.26   7 2.26  25 2.26  31 2.26
  38  0.750  0.000  0.250-   2 2.26   8 2.26  26 2.26  32 2.26
  39  0.250  0.500  0.250-   3 2.26   5 2.26  27 2.26  29 2.26
  40  0.750  0.500  0.250-   4 2.26   6 2.26  28 2.26  30 2.26
  41  0.250  0.250  0.000-   9 2.26  13 2.26   1 2.26   5 2.26
  42  0.750  0.250  0.000-  10 2.26  14 2.26   2 2.26   6 2.26
  43  0.250  0.750  0.000-  11 2.26  15 2.26   3 2.26   7 2.26
  44  0.750  0.750  0.000-  12 2.26  16 2.26   4 2.26   8 2.26
  45  0.000  0.250  0.750-  17 2.26  22 2.26   9 2.26  14 2.26
  46  0.500  0.250  0.750-  18 2.26  21 2.26  10 2.26  13 2.26
  47  0.000  0.750  0.750-  19 2.26  24 2.26  11 2.26  16 2.26
  48  0.500  0.750  0.750-  20 2.26  23 2.26  12 2.26  15 2.26
  49  0.000  0.000  0.000-  11 2.28  14 2.28   1 2.28   8 2.28
  50  0.500  0.000  0.000-  12 2.28  13 2.28   2 2.28   7 2.28
  51  0.000  0.500  0.000-   9 2.28  16 2.28   3 2.28   6 2.28
  52  0.500  0.500  0.000-  10 2.28  15 2.28   4 2.28   5 2.28
  53  0.250  0.000  0.750-  17 2.28  23 2.28  11 2.28  13 2.28
  54  0.750  0.000  0.750-  18 2.28  24 2.28  12 2.28  14 2.28
  55  0.250  0.500  0.750-  19 2.28  21 2.28   9 2.28  15 2.28
  56  0.750  0.500  0.750-  20 2.28  22 2.28  10 2.28  16 2.28
  57  0.250  0.250  0.500-  25 2.28  29 2.28  17 2.28  21 2.28
  58  0.750  0.250  0.500-  26 2.28  30 2.28  18 2.28  22 2.28
  59  0.250  0.750  0.500-  27 2.28  31 2.28  19 2.28  23 2.28
  60  0.750  0.750  0.500-  28 2.28  32 2.28  20 2.28  24 2.28
  61  0.000  0.250  0.250-   1 2.28   6 2.28  26 2.28  29 2.28
  62  0.500  0.250  0.250-   2 2.28   5 2.28  25 2.28  30 2.28
  63  0.000  0.750  0.250-   3 2.28   8 2.28  28 2.28  31 2.28
  64  0.500  0.750  0.250-   4 2.28   7 2.28  27 2.28  32 2.28

  LATTYP: Found a base centered orthorhombic cell.
 ALAT       =    14.8447239926
 B/A-ratio  =     1.0034924913
 C/A-ratio  =     0.7013887227

  Lattice vectors:

 A1 = (  10.5151350000,   0.0183300000,   0.0000000000)
 A2 = (  -0.0183300000, -10.5151350000,   0.0000000000)
 A3 = (   0.0000000000,   0.0000000000, -10.4119220000)

Analysis of symmetry for initial positions (statically):
 Subroutine PRICEL returns following result:

  LATTYP: Found a face centered orthorhombic cell.
 ALAT       =     7.4223619963
 B/A-ratio  =     1.0034924913
 C/A-ratio  =     1.4027774454

[...]

   8 primitive cells build up your supercell.

 Routine SETGRP: Setting up the symmetry group for a
 base centered orthorhombic supercell.

 Subroutine GETGRP returns: Found  4 space group operations
 (whereof  2 operations were pure point group operations)
 out of a pool of  8 trial point group operations.

The static configuration has the point symmetry C_2 .
 The point group associated with its full space group is C_2v.

Analysis of symmetry for dynamics (positions and initial velocities):
 Subroutine PRICEL returns following result:

[...]

The dynamic configuration has the point symmetry C_2 .
 The point group associated with its full space group is C_2v.

Analysis of structural, dynamic, and magnetic symmetry:
 Subroutine PRICEL returns following result:

  LATTYP: Found a face centered orthorhombic cell.
 ALAT       =     7.4223619963
 B/A-ratio  =     1.0034924913
 C/A-ratio  =     1.4027774454

  Lattice vectors:

 A1 = (  -2.6333662500,  -2.6333662500,   5.2059610000)
 A2 = (  -2.6242012500,   2.6242012500,   5.2059610000)
 A3 = (  -5.2575675000,  -0.0091650000,   0.0000000000)

   8 primitive cells build up your supercell.

 Routine SETGRP: Setting up the symmetry group for a
 base centered orthorhombic supercell.

 Subroutine GETGRP returns: Found  4 space group operations
 (whereof  2 operations were pure point group operations)
 out of a pool of  8 trial point group operations.

The magnetic configuration has the point symmetry C_2 .
 The point group associated with its full space group is C_2v.

 Subroutine INISYM returns: Found  4 space group operations
 (whereof  2 operations are pure point group operations),
 and found     8 'primitive' translations

 KPOINTS: Automatic mesh

Automatic generation of k-mesh.
Space group operators:
 irot       det(A)        alpha          n_x          n_y          n_z        tau_x        tau_y        tau_z
    1     1.000000     0.000000     1.000000     0.000000     0.000000     0.000000     0.000000     0.000000
    2     1.000000   180.000000     0.000000     0.000000     1.000000     0.000000     0.000000     0.000000
    3    -1.000000   180.000000     0.707107     0.707107     0.000000    -0.750000     0.000000     0.750000
    4    -1.000000   180.000000     0.707107    -0.707107     0.000000    -0.750000     0.000000     0.750000

 Subroutine IBZKPT returns following result:

 Found      1 irreducible k-points:

 Following reciprocal coordinates:
            Coordinates               Weight
  0.000000  0.000000  0.000000      1.000000

 Following cartesian coordinates:
            Coordinates               Weight
  0.000000  0.000000  0.000000      1.000000

 Subroutine IBZKPT_HF returns following result:

 Found      1 k-points in 1st BZ
 the following      1 k-points will be used (e.g. in the exchange kernel)
 Following reciprocal coordinates:   # in IRBZ
  0.000000  0.000000  0.000000    1.00000000   1 t-inv F

 SYSTEM =  CuFeS2
 POSCAR =  Fe16 Cu16 S32

 Startparameter for this run:
   NWRITE =      2    write-flag & timer
   PREC   = accura    normal or accurate (medium, high low for compatibility)
   ISTART =      1    job   : 0-new  1-cont  2-samecut
   ICHARG =      1    charge: 1-file 2-atom 10-const
   ISPIN  =      2    spin polarized calculation?
   LNONCOLLINEAR =      F non collinear calculations
   LSORBIT =      F    spin-orbit coupling
   INIWAV =      1    electr: 0-lowe 1-rand  2-diag
   LASPH  =      F    aspherical Exc in radial PAW
   METAGGA=      F    non-selfconsistent MetaGGA calc.

 Electronic Relaxation 1
   ENCUT  =  700.0 eV  51.45 Ry    7.17 a.u.  22.68 22.68 22.46*2*pi/ulx,y,z
   ENINI  =  700.0     initial cutoff
   ENAUG  =  758.2 eV  augmentation charge cutoff
   NELM   =    500;   NELMIN=  2; NELMDL=  0     # of ELM steps
   EDIFF  = 0.1E-07   stopping-criterion for ELM
   LREAL  =      F    real-space projection
   NLSPLINE    = F    spline interpolate recip. space projectors
   LCOMPAT=      F    compatible to vasp.4.4
   GGA_COMPAT  = T    GGA compatible to vasp.4.4-vasp.4.6
   LMAXPAW     = -100 max onsite density
   LMAXMIX     =    4 max onsite mixed and CHGCAR
   VOSKOWN=      0    Vosko Wilk Nusair interpolation
   ROPT   =    0.00000   0.00000   0.00000
 Ionic relaxation
   EDIFFG = -.1E-04   stopping-criterion for IOM
   NSW    =      0    number of steps for IOM
   NBLOCK =      1;   KBLOCK =      1    inner block; outer block
   IBRION =     -1    ionic relax: 0-MD 1-quasi-New 2-CG
   NFREE  =      0    steps in history (QN), initial steepest desc. (CG)
   ISIF   =      2    stress and relaxation
   IWAVPR =     10    prediction:  0-non 1-charg 2-wave 3-comb
   ISYM   =      2    0-nonsym 1-usesym 2-fastsym
   LCORR  =      T    Harris-Foulkes like correction to forces

   POTIM  = 0.5000    time-step for ionic-motion
   TEIN   =    0.0    initial temperature
   TEBEG  =    0.0;   TEEND  =   0.0 temperature during run
   SMASS  =  -3.00    Nose mass-parameter (am)
   estimated Nose-frequenzy (Omega)   =  0.10E-29 period in steps =****** mass=  -0.253E-26a.u.
   SCALEE = 1.0000    scale energy and forces
   NPACO  =    256;   APACO  = 16.0  distance and # of slots for P.C.
   PSTRESS=    0.0 pullay stress

  Mass of Ions in am
   POMASS =  32.07 63.55 55.85
  Ionic Valenz
   ZVAL   =   6.00 17.00 14.00
  Atomic Wigner-Seitz radii
  virtual crystal weights
   VCA    =   1.00  1.00  1.00
   NELECT =     688.0000    total number of electrons
   NUPDOWN=      -1.0000    fix difference up-down

 DOS related values:
[...]
   0.421E+02 -.294E-01 0.107E+01   -.430E+02 0.293E-01 -.109E+01   0.930E+00 -.342E-04 0.137E-01   0.416E-04 0.141E-06 0.187E-05
   -.421E+02 0.294E-01 0.107E+01   0.430E+02 -.293E-01 -.109E+01   -.930E+00 0.342E-04 0.137E-01   -.416E-04 -.141E-06 0.187E-05
   -.421E+02 0.294E-01 0.107E+01   0.430E+02 -.293E-01 -.109E+01   -.930E+00 0.342E-04 0.137E-01   -.416E-04 -.141E-06 0.187E-05
   -.421E+02 0.294E-01 0.107E+01   0.430E+02 -.293E-01 -.109E+01   -.930E+00 0.342E-04 0.137E-01   -.416E-04 -.141E-06 0.187E-05
   -.421E+02 0.294E-01 0.107E+01   0.430E+02 -.293E-01 -.109E+01   -.930E+00 0.342E-04 0.137E-01   -.416E-04 -.141E-06 0.187E-05
   0.294E-01 -.421E+02 0.107E+01   -.293E-01 0.430E+02 -.109E+01   0.342E-04 -.930E+00 0.137E-01   -.141E-06 -.416E-04 0.187E-05
   0.294E-01 -.421E+02 0.107E+01   -.293E-01 0.430E+02 -.109E+01   0.342E-04 -.930E+00 0.137E-01   -.141E-06 -.416E-04 0.187E-05
   0.294E-01 -.421E+02 0.107E+01   -.293E-01 0.430E+02 -.109E+01   0.342E-04 -.930E+00 0.137E-01   -.141E-06 -.416E-04 0.187E-05
   0.294E-01 -.421E+02 0.107E+01   -.293E-01 0.430E+02 -.109E+01   0.342E-04 -.930E+00 0.137E-01   -.141E-06 -.416E-04 0.187E-05
   -.294E-01 0.421E+02 0.107E+01   0.293E-01 -.430E+02 -.109E+01   -.342E-04 0.930E+00 0.137E-01   0.141E-06 0.416E-04 0.187E-05
   -.294E-01 0.421E+02 0.107E+01   0.293E-01 -.430E+02 -.109E+01   -.342E-04 0.930E+00 0.137E-01   0.141E-06 0.416E-04 0.187E-05
   -.294E-01 0.421E+02 0.107E+01   0.293E-01 -.430E+02 -.109E+01   -.342E-04 0.930E+00 0.137E-01   0.141E-06 0.416E-04 0.187E-05
   -.294E-01 0.421E+02 0.107E+01   0.293E-01 -.430E+02 -.109E+01   -.342E-04 0.930E+00 0.137E-01   0.141E-06 0.416E-04 0.187E-05
   -.421E+02 0.294E-01 0.107E+01   0.430E+02 -.293E-01 -.109E+01   -.930E+00 0.342E-04 0.137E-01   -.416E-04 -.141E-06 0.187E-05
   -.421E+02 0.294E-01 0.107E+01   0.430E+02 -.293E-01 -.109E+01   -.930E+00 0.342E-04 0.137E-01   -.416E-04 -.141E-06 0.187E-05
   -.421E+02 0.294E-01 0.107E+01   0.430E+02 -.293E-01 -.109E+01   -.930E+00 0.342E-04 0.137E-01   -.416E-04 -.141E-06 0.187E-05
   -.421E+02 0.294E-01 0.107E+01   0.430E+02 -.293E-01 -.109E+01   -.930E+00 0.342E-04 0.137E-01   -.416E-04 -.141E-06 0.187E-05
   0.421E+02 -.294E-01 0.107E+01   -.430E+02 0.293E-01 -.109E+01   0.930E+00 -.342E-04 0.137E-01   0.416E-04 0.141E-06 0.187E-05
   0.421E+02 -.294E-01 0.107E+01   -.430E+02 0.293E-01 -.109E+01   0.930E+00 -.342E-04 0.137E-01   0.416E-04 0.141E-06 0.187E-05
   0.421E+02 -.294E-01 0.107E+01   -.430E+02 0.293E-01 -.109E+01   0.930E+00 -.342E-04 0.137E-01   0.416E-04 0.141E-06 0.187E-05
   0.421E+02 -.294E-01 0.107E+01   -.430E+02 0.293E-01 -.109E+01   0.930E+00 -.342E-04 0.137E-01   0.416E-04 0.141E-06 0.187E-05
   0.294E-01 -.421E+02 0.107E+01   -.293E-01 0.430E+02 -.109E+01   0.342E-04 -.930E+00 0.137E-01   -.141E-06 -.416E-04 0.187E-05
   0.294E-01 -.421E+02 0.107E+01   -.293E-01 0.430E+02 -.109E+01   0.342E-04 -.930E+00 0.137E-01   -.141E-06 -.416E-04 0.187E-05
   0.294E-01 -.421E+02 0.107E+01   -.293E-01 0.430E+02 -.109E+01   0.342E-04 -.930E+00 0.137E-01   -.141E-06 -.416E-04 0.187E-05
   0.294E-01 -.421E+02 0.107E+01   -.293E-01 0.430E+02 -.109E+01   0.342E-04 -.930E+00 0.137E-01   -.141E-06 -.416E-04 0.187E-05
   -.294E-01 0.421E+02 0.107E+01   0.293E-01 -.430E+02 -.109E+01   -.342E-04 0.930E+00 0.137E-01   0.141E-06 0.416E-04 0.187E-05
   -.294E-01 0.421E+02 0.107E+01   0.293E-01 -.430E+02 -.109E+01   -.342E-04 0.930E+00 0.137E-01   0.141E-06 0.416E-04 0.187E-05
   -.294E-01 0.421E+02 0.107E+01   0.293E-01 -.430E+02 -.109E+01   -.342E-04 0.930E+00 0.137E-01   0.141E-06 0.416E-04 0.187E-05
   -.294E-01 0.421E+02 0.107E+01   0.293E-01 -.430E+02 -.109E+01   -.342E-04 0.930E+00 0.137E-01   0.141E-06 0.416E-04 0.187E-05
   -.223E-07 0.153E-07 -.127E+01   -.304E-13 0.178E-12 0.122E+01   -.102E-25 -.258E-25 0.552E-01   0.223E-11 -.304E-12 0.179E-05
   -.223E-07 0.153E-07 -.127E+01   -.277E-13 0.227E-12 0.122E+01   0.365E-26 -.646E-26 0.552E-01   -.238E-11 -.491E-12 0.179E-05
   -.223E-07 0.153E-07 -.127E+01   -.588E-13 0.199E-12 0.122E+01   -.128E-25 0.199E-26 0.552E-01   0.222E-11 0.624E-12 0.179E-05
   -.223E-07 0.153E-07 -.127E+01   -.277E-13 0.142E-12 0.122E+01   0.737E-26 0.258E-25 0.552E-01   -.247E-11 0.915E-12 0.179E-05
   0.153E-07 -.223E-07 -.127E+01   -.568E-13 0.000E+00 0.122E+01   0.144E-25 0.129E-25 0.552E-01   0.414E-14 -.747E-12 0.179E-05
   0.153E-07 -.223E-07 -.127E+01   -.568E-13 0.000E+00 0.122E+01   -.559E-25 -.123E-25 0.552E-01   -.612E-12 -.522E-12 0.179E-05
   0.153E-07 -.223E-07 -.127E+01   -.568E-13 0.284E-13 0.122E+01   0.311E-27 0.138E-26 0.552E-01   -.539E-12 0.102E-11 0.179E-05
   0.153E-07 -.223E-07 -.127E+01   0.000E+00 0.284E-13 0.122E+01   0.354E-25 -.194E-25 0.552E-01   -.106E-12 0.927E-12 0.179E-05
   -.223E-07 0.153E-07 -.127E+01   -.206E-12 0.260E-13 0.122E+01   -.212E-26 0.258E-25 0.552E-01   -.990E-12 -.496E-12 0.179E-05
   -.223E-07 0.154E-07 -.127E+01   -.149E-12 -.877E-13 0.122E+01   -.369E-26 -.646E-25 0.552E-01   0.811E-12 -.205E-12 0.179E-05
   -.223E-07 0.153E-07 -.127E+01   -.171E-12 -.469E-13 0.122E+01   -.189E-25 0.000E+00 0.552E-01   -.104E-11 0.685E-12 0.179E-05
   -.223E-07 0.153E-07 -.127E+01   -.171E-12 -.540E-13 0.122E+01   0.133E-25 -.646E-26 0.552E-01   0.880E-12 0.566E-12 0.179E-05
   0.153E-07 -.223E-07 -.127E+01   -.155E-12 -.204E-12 0.122E+01   -.178E-25 0.127E-25 0.552E-01   -.136E-11 -.319E-12 0.179E-05
   0.153E-07 -.223E-07 -.127E+01   -.152E-12 -.204E-12 0.122E+01   0.125E-25 -.564E-26 0.552E-01   0.788E-12 -.548E-12 0.179E-05
   0.153E-07 -.223E-07 -.127E+01   -.197E-12 -.114E-12 0.122E+01   -.910E-26 0.805E-26 0.552E-01   -.109E-11 0.691E-12 0.179E-05
   0.153E-07 -.222E-07 -.127E+01   -.110E-12 -.228E-12 0.122E+01   -.565E-25 -.215E-27 0.552E-01   0.521E-12 0.898E-12 0.179E-05
   0.274E-08 -.585E-08 -.102E+01   0.172E-12 -.711E-14 0.959E+00   -.655E-25 -.524E-26 0.615E-01   -.176E-11 -.880E-12 -.215E-04
   0.275E-08 -.585E-08 -.102E+01   0.189E-12 0.426E-13 0.959E+00   -.795E-26 -.388E-25 0.615E-01   0.121E-11 -.928E-12 -.215E-04
   0.274E-08 -.585E-08 -.102E+01   0.204E-12 0.284E-13 0.959E+00   0.549E-25 -.122E-25 0.615E-01   -.189E-11 0.898E-12 -.215E-04
   0.275E-08 -.583E-08 -.102E+01   0.221E-12 0.284E-13 0.959E+00   -.289E-25 0.000E+00 0.615E-01   0.136E-11 0.794E-12 -.215E-04
   -.585E-08 0.274E-08 -.102E+01   0.284E-13 -.142E-13 0.959E+00   0.725E-26 0.106E-25 0.615E-01   -.406E-12 -.857E-12 -.215E-04
   -.585E-08 0.274E-08 -.102E+01   0.746E-13 -.213E-13 0.959E+00   -.326E-25 -.374E-25 0.615E-01   0.145E-12 -.719E-12 -.215E-04
   -.585E-08 0.273E-08 -.102E+01   0.249E-13 0.355E-13 0.959E+00   0.130E-25 0.000E+00 0.615E-01   -.625E-12 0.782E-12 -.215E-04
   -.585E-08 0.274E-08 -.102E+01   0.711E-13 0.355E-13 0.959E+00   -.227E-26 0.646E-25 0.615E-01   0.309E-12 0.526E-12 -.215E-04
   0.274E-08 -.587E-08 -.102E+01   0.195E-12 -.238E-13 0.959E+00   -.228E-25 0.323E-25 0.615E-01   0.854E-13 -.606E-12 -.215E-04
   0.275E-08 -.589E-08 -.102E+01   0.153E-12 -.168E-13 0.959E+00   0.596E-25 0.000E+00 0.615E-01   -.628E-12 -.538E-12 -.215E-04
   0.274E-08 -.584E-08 -.102E+01   0.213E-12 -.324E-13 0.959E+00   -.217E-25 0.129E-25 0.615E-01   0.202E-12 0.521E-12 -.215E-04
   0.275E-08 -.584E-08 -.102E+01   0.171E-12 -.360E-13 0.959E+00   -.120E-25 0.211E-25 0.615E-01   -.805E-12 0.546E-12 -.215E-04
   -.585E-08 0.274E-08 -.102E+01   0.525E-13 -.207E-13 0.959E+00   -.152E-25 -.517E-25 0.615E-01   0.852E-12 -.284E-12 -.215E-04
   -.585E-08 0.275E-08 -.102E+01   0.400E-13 -.136E-13 0.959E+00   -.664E-25 0.834E-26 0.615E-01   -.113E-11 -.649E-12 -.215E-04
   -.585E-08 0.275E-08 -.102E+01   0.349E-13 -.471E-13 0.959E+00   -.424E-25 -.646E-26 0.615E-01   0.964E-12 0.124E-12 -.215E-04
   -.585E-08 0.277E-08 -.102E+01   0.818E-14 -.471E-13 0.959E+00   -.125E-25 -.646E-26 0.615E-01   -.126E-11 0.614E-12 -.215E-04
   0.549E-06 0.549E-06 -.231E+01   -.715E-13 -.532E-12 0.740E-12   0.222E-15 -.666E-15 0.231E+01   -.556E-11 0.229E-11 -.256E-03

 POSITION                                       TOTAL-FORCE (eV/Angst)
      1.32886      1.31691      1.29946         0.000643     -0.000149     -0.000193
      6.58643      1.32608      1.29946         0.000643     -0.000149     -0.000193
      1.33803      6.57448      1.29946         0.000643     -0.000149     -0.000193
      6.59559      6.58365      1.29946         0.000643     -0.000149     -0.000193
      3.93787      3.94982      1.29946        -0.000643      0.000149     -0.000193
      9.19544      3.95898      1.29946        -0.000643      0.000149     -0.000193
      3.94704      9.20739      1.29946        -0.000643      0.000149     -0.000193
      9.20460      9.21655      1.29946        -0.000643      0.000149     -0.000193
      1.32103      3.93329      9.10840         0.000149     -0.000643     -0.000193
      6.57860      3.94245      9.10840         0.000149     -0.000643     -0.000193
      1.33020      9.19086      9.10840         0.000149     -0.000643     -0.000193
      6.58777      9.20002      9.10840         0.000149     -0.000643     -0.000193
      3.94570      1.33344      9.10840        -0.000149      0.000643     -0.000193
      9.20327      1.34261      9.10840        -0.000149      0.000643     -0.000193
      3.95486      6.59101      9.10840        -0.000149      0.000643     -0.000193
      9.21243      6.60018      9.10840        -0.000149      0.000643     -0.000193
      1.30451      1.31645      6.50542        -0.000643      0.000149     -0.000193
      6.56207      1.32562      6.50542        -0.000643      0.000149     -0.000193
      1.31367      6.57402      6.50542        -0.000643      0.000149     -0.000193
      6.57124      6.58318      6.50542        -0.000643      0.000149     -0.000193
      3.96223      3.95028      6.50542         0.000643     -0.000149     -0.000193
      9.21979      3.95945      6.50542         0.000643     -0.000149     -0.000193
      3.97139      9.20785      6.50542         0.000643     -0.000149     -0.000193
      9.22896      9.21701      6.50542         0.000643     -0.000149     -0.000193
      3.94524      1.30909      3.90244         0.000149     -0.000643     -0.000193
      9.20280      1.31825      3.90244         0.000149     -0.000643     -0.000193
      3.95440      6.56666      3.90244         0.000149     -0.000643     -0.000193
      9.21197      6.57582      3.90244         0.000149     -0.000643     -0.000193
      1.32150      3.95764      3.90244        -0.000149      0.000643     -0.000193
      6.57906      3.96681      3.90244        -0.000149      0.000643     -0.000193
      1.33066      9.21521      3.90244        -0.000149      0.000643     -0.000193
      6.58823      9.22438      3.90244        -0.000149      0.000643     -0.000193
      0.00000      0.00000      5.20772         0.000000      0.000000     -0.000714
      5.25757      0.00916      5.20772         0.000000      0.000000     -0.000714
      0.00916      5.25757      5.20772         0.000000      0.000000     -0.000714
      5.26673      5.26673      5.20772         0.000000      0.000000     -0.000714
      2.62878      0.00458      2.60474         0.000000      0.000000     -0.000714
      7.88635      0.01375      2.60474         0.000000      0.000000     -0.000714
      2.63795      5.26215      2.60474         0.000000      0.000000     -0.000714
      7.89552      5.27132      2.60474         0.000000      0.000000     -0.000714
      2.63337      2.63337      0.00176         0.000000      0.000000     -0.000714
      7.89093      2.64253      0.00176         0.000000      0.000000     -0.000714
      2.64253      7.89093      0.00176         0.000000      0.000000     -0.000714
      7.90010      7.90010      0.00176         0.000000      0.000000     -0.000714
      0.00458      2.62878      7.81070         0.000000      0.000000     -0.000714
      5.26215      2.63795      7.81070         0.000000      0.000000     -0.000714
      0.01375      7.88635      7.81070         0.000000      0.000000     -0.000714
      5.27132      7.89552      7.81070         0.000000      0.000000     -0.000714
      0.00000      0.00000      0.00231         0.000000      0.000000      0.001101
      5.25757      0.00916      0.00231         0.000000      0.000000      0.001101
      0.00916      5.25757      0.00231         0.000000      0.000000      0.001101
      5.26673      5.26673      0.00231         0.000000      0.000000      0.001101
      2.62878      0.00458      7.81125         0.000000      0.000000      0.001101
      7.88635      0.01375      7.81125         0.000000      0.000000      0.001101
      2.63795      5.26215      7.81125         0.000000      0.000000      0.001101
      7.89552      5.27132      7.81125         0.000000      0.000000      0.001101
      2.63337      2.63337      5.20827         0.000000      0.000000      0.001101
      7.89093      2.64253      5.20827         0.000000      0.000000      0.001101
      2.64253      7.89093      5.20827         0.000000      0.000000      0.001101
      7.90010      7.90010      5.20827         0.000000      0.000000      0.001101
      0.00458      2.62878      2.60529         0.000000      0.000000      0.001101
      5.26215      2.63795      2.60529         0.000000      0.000000      0.001101
      0.01375      7.88635      2.60529         0.000000      0.000000      0.001101
      5.27132      7.89552      2.60529         0.000000      0.000000      0.001101
    total drift:                                0.000001      0.000001     -0.003873

  FREE ENERGIE OF THE ION-ELECTRON SYSTEM (eV)
  free  energy   TOTEN  =      -327.41091813 eV

  energy  without entropy=     -327.41091813  energy(sigma->0) =     -327.41091813

 writing wavefunctions

 total charge

[...]

 magnetization (x)

# of ion       s       p       d       tot
    1       -0.000  -0.001   0.000  -0.001
    2       -0.000  -0.001   0.000  -0.001
    3       -0.000  -0.001   0.000  -0.001
    4       -0.000  -0.001   0.000  -0.001
    5       -0.000  -0.001   0.000  -0.001
    6       -0.000  -0.001   0.000  -0.001
    7       -0.000  -0.001   0.000  -0.001
    8       -0.000  -0.001   0.000  -0.001
    9        0.000   0.001   0.000   0.001
   10        0.000   0.001   0.000   0.001
   11        0.000   0.001   0.000   0.001
   12        0.000   0.001   0.000   0.001
   13        0.000   0.001   0.000   0.001
   14        0.000   0.001   0.000   0.001
   15        0.000   0.001   0.000   0.001
   16        0.000   0.001   0.000   0.001
   17       -0.000  -0.001   0.000  -0.001
   18       -0.000  -0.001   0.000  -0.001
   19       -0.000  -0.001   0.000  -0.001
   20       -0.000  -0.001   0.000  -0.001
   21       -0.000  -0.001   0.000  -0.001
   22       -0.000  -0.001   0.000  -0.001
   23       -0.000  -0.001   0.000  -0.001
   24       -0.000  -0.001   0.000  -0.001
   25        0.000   0.001   0.000   0.001
   26        0.000   0.001   0.000   0.001
   27        0.000   0.001   0.000   0.001
   28        0.000   0.001   0.000   0.001
   29        0.000   0.001   0.000   0.001
   30        0.000   0.001   0.000   0.001
   31        0.000   0.001   0.000   0.001
   32        0.000   0.001   0.000   0.001
   33        0.001  -0.000  -0.001  -0.001
   34        0.001  -0.000  -0.001  -0.001
   35        0.001  -0.000  -0.001  -0.001
   36        0.001  -0.000  -0.001  -0.001
   37       -0.001   0.000   0.001   0.001
   38       -0.001   0.000   0.001   0.001
   39       -0.001   0.000   0.001   0.001
   40       -0.001   0.000   0.001   0.001
   41        0.001  -0.000  -0.001  -0.001
   42        0.001  -0.000  -0.001  -0.001
   43        0.001  -0.000  -0.001  -0.001
   44        0.001  -0.000  -0.001  -0.001
   45       -0.001   0.000   0.001   0.001
   46       -0.001   0.000   0.001   0.001
   47       -0.001   0.000   0.001   0.001
   48       -0.001   0.000   0.001   0.001
   49        0.020   0.056   3.672   3.748
   50        0.020   0.056   3.672   3.748
   51        0.020   0.056   3.672   3.748
   52        0.020   0.056   3.672   3.748
   53       -0.020  -0.056  -3.672  -3.748
   54       -0.020  -0.056  -3.672  -3.748
   55       -0.020  -0.056  -3.672  -3.748
   56       -0.020  -0.056  -3.672  -3.748
   57        0.020   0.056   3.672   3.748
   58        0.020   0.056   3.672   3.748
   59        0.020   0.056   3.672   3.748
   60        0.020   0.056   3.672   3.748
   61       -0.020  -0.056  -3.672  -3.748
   62       -0.020  -0.056  -3.672  -3.748
   63       -0.020  -0.056  -3.672  -3.748
   64       -0.020  -0.056  -3.672  -3.748
tot          0.000  -0.000   0.000   0.000