 vasp.5.4.4.18Apr17-6-g9f103f2a35 (build Oct 04 2018 15:53:47) complex

 executed on             LinuxIFC date 2022.10.07  15:46:26

 INCAR:
 POTCAR:    PAW_PBE S 06Sep2000
 POTCAR:     PAW_PBE Cu_pv 06Sep2000
 POTCAR:     PAW_PBE Fe_pv 02Aug2007
 POTCAR:    PAW_PBE S 06Sep2000
   VRHFIN =S : s2p4

   TITEL  = PAW_PBE S 06Sep2000
   POMASS =   32.066; ZVAL   =    6.000    mass and valenz
   ENMAX  =  258.689; ENMIN  =  194.016 eV

   TITEL  = PAW_PBE Cu_pv 06Sep2000
   POMASS =   63.546; ZVAL   =   17.000    mass and valenz
   ENMAX  =  368.648; ENMIN  =  276.486 eV

   TITEL  = PAW_PBE Fe_pv 02Aug2007
   POMASS =   55.847; ZVAL   =   14.000    mass and valenz
   ENMAX  =  293.238; ENMIN  =  219.928 eV

  PAW_PBE S 06Sep2000                   :
   PAW_PBE Cu_pv 06Sep2000              :
   PAW_PBE Fe_pv 02Aug2007              :

 POSCAR: sm_isp_SD0310437-standardized_unitcell
  positions in direct lattice
  velocities in cartesian coordinates
 exchange correlation table for  LEXCH =       14
   RHO(1)=    0.500       N(1)  =     2000
   RHO(2)=  100.500       N(2)  =     4000

 ion  position               nearest neighbor table
   1  0.251  0.250  0.125-  10 2.29  11 2.29  13 2.29  16 2.29
   2  0.749  0.750  0.125-  10 2.29  11 2.29  13 2.29  16 2.29
   3  0.250  0.749  0.875-  11 2.29  12 2.29  13 2.29  14 2.29
   4  0.750  0.251  0.875-  11 2.29  12 2.29  13 2.29  14 2.29
   5  0.249  0.250  0.625-   9 2.29  12 2.29  14 2.29  15 2.29
   6  0.751  0.750  0.625-   9 2.29  12 2.29  14 2.29  15 2.29
   7  0.750  0.249  0.375-   9 2.29  10 2.29  15 2.29  16 2.29
   8  0.250  0.751  0.375-   9 2.29  10 2.29  15 2.29  16 2.29
   9  0.000  0.000  0.500-   5 2.29   7 2.29   6 2.29   8 2.29
  10  0.500  0.000  0.250-   7 2.29   1 2.29   2 2.29   8 2.29
  11  0.500  0.500  0.000-   1 2.29   4 2.29   3 2.29   2 2.29
  12  0.000  0.500  0.750-   5 2.29   4 2.29   3 2.29   6 2.29
  13  0.000  0.000  0.000-   2 2.29   3 2.29   1 2.29   4 2.29
  14  0.500  0.000  0.750-   3 2.29   6 2.29   4 2.29   5 2.29
  15  0.500  0.500  0.500-   6 2.29   8 2.29   7 2.29   5 2.29
  16  0.000  0.500  0.250-   2 2.29   8 2.29   1 2.29   7 2.29

  LATTYP: Found a simple tetragonal cell.
 ALAT       =     5.4691370817
 C/A-ratio  =     1.7946438242

  Lattice vectors:

 A1 = (   5.4691370817,   0.0000000000,   0.0000000000)
 A2 = (   0.0000000000,   5.4691370817,   0.0000000000)
 A3 = (   0.0000000000,   0.0000000000,   9.8151530875)

Analysis of symmetry for initial positions (statically):
 Subroutine PRICEL returns following result:

  LATTYP: Found a body centered tetragonal cell.
 ALAT       =     5.4691370817
 C/A-ratio  =     1.7946438242

[...]

   2 primitive cells build up your supercell.

 Routine SETGRP: Setting up the symmetry group for a
 simple tetragonal supercell.

 Subroutine GETGRP returns: Found  8 space group operations
 (whereof  4 operations were pure point group operations)
 out of a pool of 16 trial point group operations.

The static configuration has the point symmetry S_4 .
 The point group associated with its full space group is D_2d.

Analysis of symmetry for dynamics (positions and initial velocities):
 Subroutine PRICEL returns following result:

[...]

The dynamic configuration has the point symmetry S_4 .
 The point group associated with its full space group is D_2d.

Analysis of structural, dynamic, and magnetic symmetry:
 Subroutine PRICEL returns following result:

  LATTYP: Found a body centered tetragonal cell.
 ALAT       =     5.4691370817
 C/A-ratio  =     1.7946438242

  Lattice vectors:

 A1 = (   2.7345685409,  -2.7345685409,   4.9075765438)
 A2 = (  -2.7345685409,   2.7345685409,   4.9075765438)
 A3 = (  -2.7345685409,  -2.7345685409,  -4.9075765438)

   2 primitive cells build up your supercell.

 Routine SETGRP: Setting up the symmetry group for a
 simple tetragonal supercell.

 Subroutine GETGRP returns: Found  8 space group operations
 (whereof  4 operations were pure point group operations)
 out of a pool of 16 trial point group operations.

The (compounded) configuration has the point symmetry S_4 .
 The point group associated with its full space group is D_2d.

 Subroutine INISYM returns: Found  8 space group operations
 (whereof  4 operations are pure point group operations),
 and found     2 'primitive' translations

 KPOINTS: Automatic mesh

Automatic generation of k-mesh.
Space group operators:
 irot       det(A)        alpha          n_x          n_y          n_z        tau_x        tau_y        tau_z
    1     1.000000     0.000000     1.000000     0.000000     0.000000     0.000000     0.000000     0.000000
    2    -1.000000    90.000000     0.000000     0.000000    -1.000000     0.000000     0.000000     0.000000
    3     1.000000   180.000000     0.000000     0.000000     1.000000     0.000000     0.000000     0.000000
    4    -1.000000    90.000000     0.000000     0.000000     1.000000     0.000000     0.000000     0.000000
    5     1.000000   180.000000     0.000000     1.000000     0.000000     0.000000    -0.500000     0.250000
    6    -1.000000   180.000000     0.707107     0.707107     0.000000     0.000000    -0.500000     0.250000
    7     1.000000   180.000000     1.000000     0.000000     0.000000     0.000000    -0.500000     0.250000
    8    -1.000000   180.000000     0.707107    -0.707107     0.000000     0.000000    -0.500000     0.250000

 Subroutine IBZKPT returns following result:

 Found     23 irreducible k-points:

 Following reciprocal coordinates:
            Coordinates               Weight
  0.000000  0.000000  0.000000      1.000000
  0.166667  0.000000  0.000000      4.000000
  0.333333  0.000000  0.000000      4.000000
  0.500000  0.000000  0.000000      2.000000
  0.166667  0.166667  0.000000      4.000000
  0.333333  0.166667  0.000000      8.000000
  0.500000  0.166667  0.000000      4.000000
  0.333333  0.333333  0.000000      4.000000
  0.500000  0.333333  0.000000      4.000000
  0.500000  0.500000  0.000000      1.000000
  0.000000  0.000000  0.333333      2.000000
  0.166667  0.000000  0.333333      8.000000
  0.333333  0.000000  0.333333      8.000000
  0.500000  0.000000  0.333333      4.000000
  0.166667  0.166667  0.333333      4.000000
  0.333333  0.166667  0.333333      8.000000
  0.500000  0.166667  0.333333      8.000000
 -0.333333  0.166667  0.333333      8.000000
 -0.166667  0.166667  0.333333      4.000000
  0.333333  0.333333  0.333333      4.000000
  0.500000  0.333333  0.333333      8.000000
 -0.333333  0.333333  0.333333      4.000000
  0.500000  0.500000  0.333333      2.000000

 Following cartesian coordinates:
            Coordinates               Weight
  0.000000  0.000000  0.000000      1.000000
  0.030474  0.000000  0.000000      4.000000
  0.060948  0.000000  0.000000      4.000000
  0.091422  0.000000  0.000000      2.000000
  0.030474  0.030474  0.000000      4.000000
  0.060948  0.030474  0.000000      8.000000
  0.091422  0.030474  0.000000      4.000000
  0.060948  0.060948  0.000000      4.000000
  0.091422  0.060948  0.000000      4.000000
  0.091422  0.091422  0.000000      1.000000
  0.000000  0.000000  0.033961      2.000000
  0.030474  0.000000  0.033961      8.000000
  0.060948  0.000000  0.033961      8.000000
  0.091422  0.000000  0.033961      4.000000
  0.030474  0.030474  0.033961      4.000000
  0.060948  0.030474  0.033961      8.000000
  0.091422  0.030474  0.033961      8.000000
 -0.060948  0.030474  0.033961      8.000000
 -0.030474  0.030474  0.033961      4.000000
  0.060948  0.060948  0.033961      4.000000
  0.091422  0.060948  0.033961      8.000000
 -0.060948  0.060948  0.033961      4.000000
  0.091422  0.091422  0.033961      2.000000

 TETIRR: Found    274 inequivalent tetrahedra from      648

 SYSTEM =  CuFeS2
 POSCAR =  sm_isp_SD0310437-standardized_unitcell

 Startparameter for this run:
   NWRITE =      2    write-flag & timer
   PREC   = accura    normal or accurate (medium, high low for compatibility)
   ISTART =      1    job   : 0-new  1-cont  2-samecut
   ICHARG =      1    charge: 1-file 2-atom 10-const
   ISPIN  =      1    spin polarized calculation?
   LNONCOLLINEAR =      T non collinear calculations
   LSORBIT =      F    spin-orbit coupling
   INIWAV =      1    electr: 0-lowe 1-rand  2-diag
   LASPH  =      T    aspherical Exc in radial PAW
   METAGGA=      F    non-selfconsistent MetaGGA calc.

 Electronic Relaxation 1
   ENCUT  =  700.0 eV  51.45 Ry    7.17 a.u.  11.80 11.80 21.17*2*pi/ulx,y,z
   ENINI  =  700.0     initial cutoff
   ENAUG  =  758.2 eV  augmentation charge cutoff
   NELM   =    200;   NELMIN=  2; NELMDL=  0     # of ELM steps
   EDIFF  = 0.1E-07   stopping-criterion for ELM
   LREAL  =      F    real-space projection
   NLSPLINE    = F    spline interpolate recip. space projectors
   LCOMPAT=      F    compatible to vasp.4.4
   GGA_COMPAT  = T    GGA compatible to vasp.4.4-vasp.4.6
   LMAXPAW     = -100 max onsite density
   LMAXMIX     =    4 max onsite mixed and CHGCAR
   VOSKOWN=      0    Vosko Wilk Nusair interpolation
   ROPT   =    0.00000   0.00000   0.00000
 Ionic relaxation
   EDIFFG = -.1E-04   stopping-criterion for IOM
   NSW    =      0    number of steps for IOM
   NBLOCK =      1;   KBLOCK =      1    inner block; outer block
   IBRION =     -1    ionic relax: 0-MD 1-quasi-New 2-CG
   NFREE  =      0    steps in history (QN), initial steepest desc. (CG)
   ISIF   =      2    stress and relaxation
   IWAVPR =     10    prediction:  0-non 1-charg 2-wave 3-comb
   ISYM   =      1    0-nonsym 1-usesym 2-fastsym
   LCORR  =      T    Harris-Foulkes like correction to forces

   POTIM  = 0.1000    time-step for ionic-motion
   TEIN   =    0.0    initial temperature
   TEBEG  =    0.0;   TEEND  =   0.0 temperature during run
   SMASS  =  -3.00    Nose mass-parameter (am)
   estimated Nose-frequenzy (Omega)   =  0.10E-29 period in steps =****** mass=  -0.684E-27a.u.
   SCALEE = 1.0000    scale energy and forces
   NPACO  =    256;   APACO  = 16.0  distance and # of slots for P.C.
   PSTRESS=    0.0 pullay stress

  Mass of Ions in am
   POMASS =  32.07 63.55 55.85
  Ionic Valenz
   ZVAL   =   6.00 17.00 14.00
  Atomic Wigner-Seitz radii
  virtual crystal weights
   VCA    =   1.00  1.00  1.00
   NELECT =     172.0000    total number of electrons
   NUPDOWN=      -1.0000    fix difference up-down

 DOS related values:
   EMIN   =  10.00;   EMAX   =-10.00  energy-range for DOS
   EFERMI =   0.00
   ISMEAR =    -5;   SIGMA  =   0.03  broadening in eV -4-tet -1-fermi 0-gaus

 Electronic relaxation 2 (details)
   IALGO  =     58    algorithm
   LDIAG  =      T    sub-space diagonalisation (order eigenvalues)
   LSUBROT=      F    optimize rotation matrix (better conditioning)
   TURBO    =      0    0=normal 1=particle mesh
   IRESTART =      0    0=no restart 2=restart with 2 vectors
   NREBOOT  =      0    no. of reboots
   NMIN     =      0    reboot dimension
   EREF     =   0.00    reference energy to select bands
   IMIX   =      4    mixing-type and parameters
     AMIX     =   0.40;   BMIX     =  1.00
     AMIX_MAG =   1.60;   BMIX_MAG =  1.00
     AMIN     =   0.10
[...]
  -exchange      EXHF   =         0.00000000
  -V(xc)+E(xc)   XCENC  =       820.84378167
  PAW double counting   =     27817.32204290   -28739.47885048
  entropy T*S    EENTRO =         0.00000000
  eigenvalues    EBANDS =     -2742.79827983
  atomic energy  EATOM  =     28505.01627691
  free energy    TOTEN  =       -81.85303288 eV

  energy without entropy =      -81.85303288  energy(sigma->0) =      -81.85303288

[...]

 eigenvalue-minimisations  :     0
 total energy-change (2. order) :-0.4282483E-06  ( 0.4840041E-09)
 number of electron     171.9999972 magnetization      -0.0000000      0.0000000     -0.0000000
 augmentation part       70.5805139 magnetization       0.0000000     -0.0000001     -0.0001282

[...]

 eigenvalue-minimisations  :     0
 total energy-change (2. order) : 0.1941726E-05  ( 0.1554920E-09)
 number of electron     171.9999972 magnetization       0.0000000     -0.0000000     -0.0000000
 augmentation part       70.5805139 magnetization       0.0000000     -0.0000001     -0.0001282

[...]

 eigenvalue-minimisations  :     0
 total energy-change (2. order) : 0.2998804E-05  ( 0.2034662E-09)
 number of electron     171.9999972 magnetization       0.0000000      0.0000000      0.0000000
 augmentation part       70.5805140 magnetization      -0.0000000     -0.0000000     -0.0001282

[...]

 eigenvalue-minimisations  :     0
 total energy-change (2. order) :-0.1368426E-07  ( 0.4392595E-09)
 number of electron     171.9999972 magnetization       0.0000000     -0.0000000     -0.0000000
 augmentation part       70.5805140 magnetization      -0.0000000     -0.0000000     -0.0001282

[...]

 eigenvalue-minimisations  :     0
 total energy-change (2. order) :-0.1485838E-05  (-0.1083064E-12)
 number of electron     171.9999972 magnetization       0.0000000      0.0000000     -0.0000000
 augmentation part       70.5805140 magnetization       0.0000000     -0.0000001     -0.0001282

[...]

--------------------------------------- Iteration      1(  57)  ---------------------------------------

 BZINTS: Fermi energy:  4.667608;172.000000 electrons
         Band energy:***********;  BLOECHL correction:  0.000000
 BZINTS: Fermi energy:  4.667608;172.000000 electrons
         Band energy:***********;  BLOECHL correction:  0.000000

 eigenvalue-minimisations  :     0
 total energy-change (2. order) : 0.2000888E-10  (-0.1111272E-12)
 number of electron     171.9999972 magnetization       0.0000000      0.0000000      0.0000000
 augmentation part       70.5805140 magnetization       0.0000000     -0.0000001     -0.0001282

 Free energy of the ion-electron system (eV)
  alpha Z        PSCENC =       577.16362915
  Ewald energy   TEWEN  =    -15530.62694218
  -Hartree energ DENC   =    -10789.29457077
  -exchange      EXHF   =         0.00000000
  -V(xc)+E(xc)   XCENC  =       820.84377087
  PAW double counting   =     27817.32127917   -28739.47809165
  entropy T*S    EENTRO =         0.00000000
  eigenvalues    EBANDS =     -2742.79838789
  atomic energy  EATOM  =     28505.01627691
  free energy    TOTEN  =       -81.85303639 eV

  energy without entropy =      -81.85303639  energy(sigma->0) =      -81.85303639

  average scaling for gradient   0.8370

 average (electrostatic) potential at core
  the test charge radii are     0.9698  0.8297  0.9500
  (the norm of the test charge is              1.0000)
       1 -86.7961       2 -86.7961       3 -86.7961       4 -86.7961       5 -86.7961
       6 -86.7961       7 -86.7961       8 -86.7961       9 -80.7939      10 -80.7939
      11 -80.7939      12 -80.7939      13 -80.4583      14 -80.4583      15 -80.4583
      16 -80.4583

 E-fermi :   4.6676     XC(G=0): -10.3744     alpha+bet :-10.3338

 k-point     1 :       0.0000    0.0000    0.0000
  band No.  band energies     occupation
      1     -64.3794      1.00000
      2     -64.3794      1.00000
      3     -64.3794      1.00000
      4     -64.3794      1.00000
      5     -64.3794      1.00000
      6     -64.3794      1.00000
      7     -64.3794      1.00000
      8     -64.3794      1.00000
      9     -64.3760      1.00000
     10     -64.3760      1.00000
     11     -64.3760      1.00000
     12     -64.3760      1.00000
     13     -64.3687      1.00000
     14     -64.3687      1.00000
     15     -64.3687      1.00000
     16     -64.3687      1.00000
     17     -64.3613      1.00000
     18     -64.3613      1.00000
     19     -64.3613      1.00000
     20     -64.3613      1.00000
     21     -64.3613      1.00000
     22     -64.3613      1.00000
     23     -64.3613      1.00000
     24     -64.3613      1.00000
     25     -52.1988      1.00000
     26     -52.1988      1.00000
     27     -52.1988      1.00000
     28     -52.1988      1.00000
     29     -52.0445      1.00000
     30     -52.0445      1.00000
     31     -52.0445      1.00000
     32     -52.0445      1.00000
     33     -52.0445      1.00000
     34     -52.0445      1.00000
     35     -52.0445      1.00000
     36     -52.0445      1.00000
     37     -47.9889      1.00000
     38     -47.9889      1.00000
     39     -47.9889      1.00000
     40     -47.9889      1.00000
     41     -47.9232      1.00000
     42     -47.9232      1.00000
     43     -47.9232      1.00000
     44     -47.9232      1.00000
     45     -47.9232      1.00000
     46     -47.9232      1.00000
     47     -47.9232      1.00000
     48     -47.9232      1.00000
     49      -9.1885      1.00000
     50      -9.1885      1.00000
     51      -8.5330      1.00000
     52      -8.5330      1.00000
     53      -8.5101      1.00000
     54      -8.5101      1.00000
     55      -7.9466      1.00000
     56      -7.9466      1.00000
     57      -7.9466      1.00000
     58      -7.9466      1.00000
     59      -7.9306      1.00000
     60      -7.9306      1.00000
[...]
    194       7.3630      0.00000
    195       8.1994      0.00000
    196       8.1994      0.00000
    197       8.7855      0.00000
    198       8.7855      0.00000
    199       8.7855      0.00000
    200       8.7855      0.00000
    201       9.1156      0.00000
    202       9.1156      0.00000
    203       9.2842      0.00000
    204       9.2842      0.00000
    205       9.3632      0.00000
    206       9.3632      0.00000
    207       9.8540      0.00000
    208       9.8540      0.00000

[...]

 k-point    23 :       0.5000    0.5000    0.3333
  band No.  band energies     occupation
      1     -64.3794      1.00000
      2     -64.3794      1.00000
      3     -64.3794      1.00000
      4     -64.3794      1.00000
      5     -64.3794      1.00000
      6     -64.3794      1.00000
      7     -64.3794      1.00000
      8     -64.3794      1.00000
      9     -64.3760      1.00000
     10     -64.3760      1.00000
     11     -64.3760      1.00000
     12     -64.3760      1.00000
     13     -64.3687      1.00000
     14     -64.3687      1.00000
     15     -64.3687      1.00000
     16     -64.3687      1.00000
     17     -64.3613      1.00000
     18     -64.3613      1.00000
     19     -64.3613      1.00000
     20     -64.3613      1.00000
     21     -64.3613      1.00000
     22     -64.3613      1.00000
     23     -64.3613      1.00000
     24     -64.3613      1.00000
     25     -52.1988      1.00000
     26     -52.1988      1.00000
     27     -52.1988      1.00000
     28     -52.1988      1.00000
     29     -52.0445      1.00000
     30     -52.0445      1.00000
     31     -52.0445      1.00000
     32     -52.0445      1.00000
     33     -52.0445      1.00000
     34     -52.0445      1.00000
     35     -52.0445      1.00000
     36     -52.0445      1.00000
     37     -47.9889      1.00000
     38     -47.9889      1.00000
     39     -47.9889      1.00000
     40     -47.9889      1.00000
     41     -47.9232      1.00000
     42     -47.9232      1.00000
     43     -47.9232      1.00000
     44     -47.9232      1.00000
     45     -47.9232      1.00000
     46     -47.9232      1.00000
     47     -47.9232      1.00000
     48     -47.9232      1.00000
     49      -8.2469      1.00000
     50      -8.2469      1.00000
     51      -8.2469      1.00000
     52      -8.2469      1.00000
     53      -8.2460      1.00000
     54      -8.2460      1.00000
     55      -8.2460      1.00000
     56      -8.2460      1.00000
     57      -8.2225      1.00000
     58      -8.2225      1.00000
     59      -8.2225      1.00000
     60      -8.2225      1.00000
[...]
    194       8.8858      0.00000
    195       8.8858      0.00000
    196       8.8858      0.00000
    197       9.1802      0.00000
    198       9.1802      0.00000
    199       9.1802      0.00000
    200       9.1802      0.00000
    201       9.5354      0.00000
    202       9.5354      0.00000
    203       9.5354      0.00000
    204       9.5354      0.00000
    205      10.0214      0.00000
    206      10.0214      0.00000
    207      10.0215      0.00000
    208      10.0215      0.00000

 soft charge-density along one line, spin component           1
         0         1         2         3         4         5         6         7         8         9
 total charge-density along one line

[...]

 soft charge-density along one line, spin component           4
         0         1         2         3         4         5         6         7         8         9
 total charge-density along one line

------------------------ aborting loop because EDIFF is reached ----------------------------------------

 total charge

# of ion       s       p       d       tot
    1        1.314   2.398   0.000   3.713
    2        1.314   2.397   0.000   3.711
    3        1.315   2.397   0.000   3.711
    4        1.315   2.397   0.000   3.711
    5        1.314   2.397   0.000   3.711
    6        1.314   2.398   0.000   3.713
    7        1.315   2.397   0.000   3.711
    8        1.315   2.397   0.000   3.711
    9        0.251   6.188   8.923  15.362
   10        0.251   6.188   8.923  15.362
   11        0.251   6.188   8.923  15.362
   12        0.251   6.188   8.923  15.362
   13        0.343   6.339   5.807  12.489
   14        0.343   6.339   5.807  12.489
   15        0.343   6.339   5.807  12.489
   16        0.343   6.339   5.807  12.489
tot         12.895  69.282  58.919 141.096

 magnetization (x)

[...]

 magnetization (y)

[...]

 magnetization (z)

[...]

  FORCE on cell =-STRESS in cart. coord.  units (eV):
  Direction    XX          YY          ZZ          XY          YZ          ZX
  Alpha Z   577.16363   577.16363   577.16363
  Ewald   -5006.30211 -5006.30211 -5518.05516    -0.00000    -0.00000    -0.00000
  Hartree  3682.45972  3682.45972  3424.37514    -0.00000     0.00000     0.00000
  E(xc)   -1049.84575 -1049.84575 -1050.14353    -0.00000    -0.00000    -0.00000
  Local   -1541.95988 -1541.95988  -771.85121    -0.00000    -0.00000    -0.00000
  n-local   118.60029   119.89489   114.37477    -0.15597    -0.03317    -0.02920
  augment  1181.62507  1181.62507  1176.65020     0.00000     0.00000    -0.00000
  Kinetic  2028.68007  2035.49238  2047.48600    -0.75536     0.18165    -0.06727
  Fock        0.00000     0.00000     0.00000     0.00000     0.00000     0.00000
  Total      -5.52552    -5.52552    -0.00016     0.00000     0.00000     0.00000
  in kB     -30.15427   -30.15427    -0.00090     0.00000     0.00000     0.00000

 VOLUME and BASIS-vectors are now :
  energy-cutoff  :      700.00
  volume of cell :      293.59
      direct lattice vectors                 reciprocal lattice vectors
     5.469137082  0.000000000  0.000000000     0.182844201  0.000000000  0.000000000
     0.000000000  5.469137082  0.000000000     0.000000000  0.182844201  0.000000000
     0.000000000  0.000000000  9.815153088     0.000000000  0.000000000  0.101883281

  length of vectors
     5.469137082  5.469137082  9.815153088     0.182844201  0.182844201  0.101883281

 FORCES acting on ions:
    Electron-Ion                     Ewald-Force                    Non-Local-Force
   0.416E+02 -.194E-12 -.162E-12   -.424E+02 0.142E-13 0.000E+00   0.744E+00 0.257E-18 -.141E-17
   -.416E+02 -.121E-11 -.706E-13   0.424E+02 -.284E-13 -.284E-13   -.744E+00 0.480E-18 0.241E-18
   0.540E-12 -.416E+02 0.392E-12   0.275E-13 0.424E+02 0.711E-14   0.701E-18 -.744E+00 -.149E-17
   0.342E-12 0.416E+02 0.424E-12   -.444E-13 -.424E+02 -.711E-13   -.126E-19 0.744E+00 -.189E-19
   -.416E+02 -.301E-12 -.302E-12   0.424E+02 -.160E-13 -.284E-13   -.744E+00 0.494E-18 -.145E-17
   0.416E+02 -.597E-13 0.210E-14   -.424E+02 0.187E-13 0.711E-13   0.744E+00 0.206E-18 -.246E-19
   0.372E-12 -.416E+02 0.757E-12   -.426E-13 0.424E+02 0.000E+00   0.750E-18 -.744E+00 -.135E-17
   0.506E-12 0.416E+02 0.585E-12   0.711E-13 -.424E+02 -.568E-13   -.894E-18 0.744E+00 -.319E-18
   0.140E-12 -.182E-12 0.302E-11   0.107E-04 -.259E-04 0.114E-12   0.215E-18 0.246E-18 -.528E-18
   0.169E-11 0.229E-12 -.683E-11   -.107E-04 -.259E-04 -.568E-13   -.239E-18 0.266E-18 -.130E-19
   0.174E-11 -.593E-11 0.138E-13   -.107E-04 0.259E-04 0.114E-12   0.244E-18 0.242E-18 -.612E-18
   0.157E-12 0.190E-11 0.440E-11   0.107E-04 0.259E-04 -.103E-12   -.238E-18 0.264E-18 0.381E-18
   0.375E-12 0.286E-12 0.240E-12   -.837E-05 0.214E-04 0.000E+00   0.312E-18 0.604E-19 0.124E-18
   0.109E-11 -.307E-12 -.333E-10   0.837E-05 0.214E-04 0.124E-12   0.250E-18 -.120E-18 0.122E-17
   0.107E-11 -.358E-11 -.105E-10   0.837E-05 -.214E-04 -.568E-13   -.431E-18 -.630E-19 -.656E-18
   0.401E-12 0.364E-12 0.404E-12   -.837E-05 -.214E-04 0.436E-17   -.411E-18 0.260E-18 0.260E-18
   0.146E-10 -.281E-11 -.412E-10   -.839E-13 0.306E-13 0.287E-13   0.444E-15 -.110E-15 -.565E-17

 POSITION                                       TOTAL-FORCE (eV/Angst)
      1.37406      1.36728      1.22689         0.000004     -0.000000     -0.000000
      4.09508      4.10185      1.22689        -0.000004      0.000000     -0.000000
      1.36728      4.09508      8.58826        -0.000000     -0.000004     -0.000000
      4.10185      1.37406      8.58826        -0.000000      0.000004      0.000000
      1.36051      1.36728      6.13447        -0.000004     -0.000000     -0.000000
      4.10863      4.10185      6.13447         0.000004     -0.000000     -0.000000
      4.10185      1.36051      3.68068        -0.000000     -0.000004      0.000000
      1.36728      4.10863      3.68068        -0.000000      0.000004     -0.000000
      0.00000      0.00000      4.90758        -0.000000      0.000000     -0.000000
      2.73457      0.00000      2.45379        -0.000000     -0.000000      0.000000
      2.73457      2.73457      0.00000         0.000000      0.000000      0.000000
      0.00000      2.73457      7.36136         0.000000      0.000000      0.000000
      0.00000      0.00000      0.00000        -0.000000     -0.000000      0.000000
      2.73457      0.00000      7.36136        -0.000000      0.000000     -0.000000
      2.73457      2.73457      4.90758         0.000000      0.000000      0.000000
      0.00000      2.73457      2.45379         0.000000     -0.000000     -0.000000
    total drift:                                0.000000     -0.000000     -0.000000

  FREE ENERGIE OF THE ION-ELECTRON SYSTEM (eV)
  free  energy   TOTEN  =       -81.85303639 eV

  energy  without entropy=      -81.85303639  energy(sigma->0) =      -81.85303639

 writing wavefunctions

 total charge

[...]

 magnetization (x)

[...]

 magnetization (y)

[...]

 magnetization (z)

# of ion       s       p       d       tot
    1        0.000  -0.002   0.000  -0.002
    2        0.000  -0.003   0.000  -0.003
    3       -0.000   0.002   0.000   0.002
    4       -0.000   0.003   0.000   0.003
    5        0.000  -0.003   0.000  -0.003
    6        0.000  -0.002   0.000  -0.002
    7       -0.000   0.002   0.000   0.002
    8       -0.000   0.003   0.000   0.003
    9        0.000   0.002  -0.008  -0.006
   10       -0.000  -0.002   0.008   0.006
   11        0.000   0.002  -0.008  -0.006
   12       -0.000  -0.002   0.008   0.006
   13        0.021   0.052   3.687   3.760
   14       -0.021  -0.053  -3.687  -3.760
   15        0.021   0.052   3.687   3.760
   16       -0.021  -0.053  -3.687  -3.760
tot         -0.000   0.000  -0.000  -0.000

 BZINTS: Fermi energy:  4.667608;172.000000 electrons
         Band energy:***********;  BLOECHL correction:  0.000000
 BZINTS: Fermi energy:  4.667608;172.000000 electrons
         Band energy:***********;  BLOECHL correction:  0.000000
 BZINTS: Fermi energy:  4.667608;172.000000 electrons
         Band energy:***********;  BLOECHL correction:  0.000000
 BZINTS: Fermi energy:  4.667608;172.000000 electrons
         Band energy:***********;  BLOECHL correction:  0.000000