 vasp.5.4.4.18Apr17-6-g9f103f2a35 (build Oct 30 2023 17:49:44) complex

 executed on             LinuxIFC date 2024.12.09  12:34:55

 INCAR:
 POTCAR:    PAW_PBE S 06Sep2000
 POTCAR:     PAW_PBE Cu_pv 06Sep2000
 POTCAR:     PAW_PBE Fe_pv 02Aug2007
 POTCAR:    PAW_PBE S 06Sep2000
   VRHFIN =S : s2p4

   TITEL  = PAW_PBE S 06Sep2000
   POMASS =   32.066; ZVAL   =    6.000    mass and valenz
   ENMAX  =  258.689; ENMIN  =  194.016 eV

   TITEL  = PAW_PBE Cu_pv 06Sep2000
   POMASS =   63.546; ZVAL   =   17.000    mass and valenz
   ENMAX  =  368.648; ENMIN  =  276.486 eV

   TITEL  = PAW_PBE Fe_pv 02Aug2007
   POMASS =   55.847; ZVAL   =   14.000    mass and valenz
   ENMAX  =  293.238; ENMIN  =  219.928 eV

  PAW_PBE S 06Sep2000                   :
   PAW_PBE Cu_pv 06Sep2000              :
   PAW_PBE Fe_pv 02Aug2007              :

 POSCAR: sm_isp_SD0310437-standardized_unitcell
  positions in direct lattice
  velocities in cartesian coordinates
 exchange correlation table for  LEXCH =       14
   RHO(1)=    0.500       N(1)  =     2000
   RHO(2)=  100.500       N(2)  =     4000

 ion  position               nearest neighbor table
   1  0.252  0.250  0.125-  11 2.27  10 2.27  16 2.29  13 2.29
   2  0.748  0.750  0.125-  11 2.27  10 2.27  16 2.29  13 2.29
   3  0.250  0.748  0.875-  11 2.27  12 2.27  13 2.29  14 2.29
   4  0.750  0.252  0.875-  11 2.27  12 2.27  13 2.29  14 2.29
   5  0.248  0.250  0.625-  12 2.27   9 2.27  15 2.29  14 2.29
   6  0.752  0.750  0.625-  12 2.27   9 2.27  15 2.29  14 2.29
   7  0.750  0.248  0.375-   9 2.27  10 2.27  15 2.29  16 2.29
   8  0.250  0.752  0.375-   9 2.27  10 2.27  15 2.29  16 2.29
   9  0.000  0.000  0.500-   7 2.27   8 2.27   5 2.27   6 2.27
  10  0.500  0.000  0.250-   7 2.27   8 2.27   1 2.27   2 2.27
  11  0.500  0.500  1.000-   4 2.27   3 2.27   1 2.27   2 2.27
  12  0.000  0.500  0.750-   4 2.27   3 2.27   5 2.27   6 2.27
  13  0.000  0.000  1.000-   3 2.29   4 2.29   2 2.29   1 2.29
  14  0.500  0.000  0.750-   3 2.29   4 2.29   6 2.29   5 2.29
  15  0.500  0.500  0.500-   8 2.29   7 2.29   6 2.29   5 2.29
  16  0.000  0.500  0.250-   8 2.29   7 2.29   2 2.29   1 2.29

  LATTYP: Found a simple orthorhombic cell.
 ALAT       =     5.1161149551
 B/A-ratio  =     1.0484442620
 C/A-ratio  =     2.0751100263

  Lattice vectors:

 A1 = (   0.0000000000,  -5.1161149551,   0.0000000000)
 A2 = (  -5.3639613686,   0.0000000000,   0.0000000000)
 A3 = (   0.0000000000,   0.0000000000, -10.6165014392)

Analysis of symmetry for initial positions (statically):
 Subroutine PRICEL returns following result:

  LATTYP: Found a body centered orthorhombic cell.
 ALAT       =     5.1161149551
 B/A-ratio  =     1.0484442620
 C/A-ratio  =     2.0751100263

[...]

   2 primitive cells build up your supercell.

 Routine SETGRP: Setting up the symmetry group for a
 simple orthorhombic supercell.

 Subroutine GETGRP returns: Found  4 space group operations
 (whereof  2 operations were pure point group operations)
 out of a pool of  8 trial point group operations.

The static configuration has the point symmetry C_2 .
 The point group associated with its full space group is D_2 .

Analysis of symmetry for dynamics (positions and initial velocities):
 Subroutine PRICEL returns following result:

[...]

The dynamic configuration has the point symmetry C_2 .
 The point group associated with its full space group is D_2 .

Analysis of structural, dynamic, and magnetic symmetry:
 Subroutine PRICEL returns following result:

  LATTYP: Found a body centered orthorhombic cell.
 ALAT       =     5.1161149551
 B/A-ratio  =     1.0484442620
 C/A-ratio  =     2.0751100263

  Lattice vectors:

 A1 = (  -2.6819806843,  -2.5580574776,   5.3082507196)
 A2 = (   2.6819806843,   2.5580574776,   5.3082507196)
 A3 = (  -2.6819806843,   2.5580574776,  -5.3082507196)

   2 primitive cells build up your supercell.

 Routine SETGRP: Setting up the symmetry group for a
 simple orthorhombic supercell.

 Subroutine GETGRP returns: Found  4 space group operations
 (whereof  2 operations were pure point group operations)
 out of a pool of  8 trial point group operations.

The (compounded) configuration has the point symmetry C_2 .
 The point group associated with its full space group is D_2 .

 Subroutine INISYM returns: Found  4 space group operations
 (whereof  2 operations are pure point group operations),
 and found     2 'primitive' translations

 KPOINTS: Automatic mesh

Automatic generation of k-mesh.
Space group operators:
 irot       det(A)        alpha          n_x          n_y          n_z        tau_x        tau_y        tau_z
    1     1.000000     0.000000     1.000000     0.000000     0.000000     0.000000     0.000000     0.000000
    2     1.000000   180.000000     0.000000     0.000000     1.000000     0.000000     0.000000     0.000000
    3     1.000000   180.000000     1.000000     0.000000     0.000000     0.000000     0.500000     0.250000
    4     1.000000   179.999999     0.000000     1.000000     0.000000     0.000000     0.500000     0.250000

 Subroutine IBZKPT returns following result:

 Found     36 irreducible k-points:

 Following reciprocal coordinates:
            Coordinates               Weight
  0.000000  0.000000  0.000000      1.000000
  0.166667  0.000000  0.000000      2.000000
  0.333333  0.000000  0.000000      2.000000
  0.500000  0.000000  0.000000      1.000000
  0.000000  0.166667  0.000000      2.000000
  0.166667  0.166667  0.000000      4.000000
  0.333333  0.166667  0.000000      4.000000
  0.500000  0.166667  0.000000      2.000000
  0.000000  0.333333  0.000000      2.000000
  0.166667  0.333333  0.000000      4.000000
  0.333333  0.333333  0.000000      4.000000
  0.500000  0.333333  0.000000      2.000000
  0.000000  0.500000  0.000000      1.000000
  0.166667  0.500000  0.000000      2.000000
  0.333333  0.500000  0.000000      2.000000
  0.500000  0.500000  0.000000      1.000000
  0.000000  0.000000  0.333333      2.000000
  0.166667  0.000000  0.333333      4.000000
  0.333333  0.000000  0.333333      4.000000
  0.500000  0.000000  0.333333      2.000000
  0.000000  0.166667  0.333333      4.000000
  0.166667  0.166667  0.333333      4.000000
  0.333333  0.166667  0.333333      4.000000
  0.500000  0.166667  0.333333      4.000000
 -0.333333  0.166667  0.333333      4.000000
 -0.166667  0.166667  0.333333      4.000000
  0.000000  0.333333  0.333333      4.000000
  0.166667  0.333333  0.333333      4.000000
  0.333333  0.333333  0.333333      4.000000
  0.500000  0.333333  0.333333      4.000000
 -0.333333  0.333333  0.333333      4.000000
 -0.166667  0.333333  0.333333      4.000000
  0.000000  0.500000  0.333333      2.000000
  0.166667  0.500000  0.333333      4.000000
  0.333333  0.500000  0.333333      4.000000
  0.500000  0.500000  0.333333      2.000000

 Following cartesian coordinates:
            Coordinates               Weight
  0.000000  0.000000  0.000000      1.000000
  0.031072  0.000000  0.000000      2.000000
  0.062143  0.000000  0.000000      2.000000
  0.093215  0.000000  0.000000      1.000000
  0.000000  0.032577  0.000000      2.000000
  0.031072  0.032577  0.000000      4.000000
  0.062143  0.032577  0.000000      4.000000
  0.093215  0.032577  0.000000      2.000000
  0.000000  0.065154  0.000000      2.000000
  0.031072  0.065154  0.000000      4.000000
  0.062143  0.065154  0.000000      4.000000
  0.093215  0.065154  0.000000      2.000000
  0.000000  0.097730  0.000000      1.000000
  0.031072  0.097730  0.000000      2.000000
  0.062143  0.097730  0.000000      2.000000
  0.093215  0.097730  0.000000      1.000000
  0.000000  0.000000  0.031398      2.000000
  0.031072  0.000000  0.031398      4.000000
  0.062143  0.000000  0.031398      4.000000
  0.093215  0.000000  0.031398      2.000000
  0.000000  0.032577  0.031398      4.000000
  0.031072  0.032577  0.031398      4.000000
  0.062143  0.032577  0.031398      4.000000
  0.093215  0.032577  0.031398      4.000000
 -0.062143  0.032577  0.031398      4.000000
 -0.031072  0.032577  0.031398      4.000000
  0.000000  0.065154  0.031398      4.000000
  0.031072  0.065154  0.031398      4.000000
  0.062143  0.065154  0.031398      4.000000
  0.093215  0.065154  0.031398      4.000000
 -0.062143  0.065154  0.031398      4.000000
 -0.031072  0.065154  0.031398      4.000000
  0.000000  0.097730  0.031398      2.000000
  0.031072  0.097730  0.031398      4.000000
  0.062143  0.097730  0.031398      4.000000
  0.093215  0.097730  0.031398      2.000000

 TETIRR: Found    544 inequivalent tetrahedra from      648

 SYSTEM =  CuFeS2
 POSCAR =  sm_isp_SD0310437-standardized_unitcell

 Startparameter for this run:
   NWRITE =      2    write-flag & timer
   PREC   = accura    normal or accurate (medium, high low for compatibility)
   ISTART =      1    job   : 0-new  1-cont  2-samecut
   ICHARG =      1    charge: 1-file 2-atom 10-const
   ISPIN  =      1    spin polarized calculation?
   LNONCOLLINEAR =      T non collinear calculations
   LSORBIT =      F    spin-orbit coupling
   INIWAV =      1    electr: 0-lowe 1-rand  2-diag
   LASPH  =      T    aspherical Exc in radial PAW
   METAGGA=      F    non-selfconsistent MetaGGA calc.

 Electronic Relaxation 1
   ENCUT  =  700.0 eV  51.45 Ry    7.17 a.u.  11.57 11.04 22.90*2*pi/ulx,y,z
   ENINI  =  700.0     initial cutoff
   ENAUG  =  758.2 eV  augmentation charge cutoff
   NELM   =    200;   NELMIN=  2; NELMDL=  0     # of ELM steps
   EDIFF  = 0.1E-07   stopping-criterion for ELM
   LREAL  =      F    real-space projection
   NLSPLINE    = F    spline interpolate recip. space projectors
   LCOMPAT=      F    compatible to vasp.4.4
   GGA_COMPAT  = T    GGA compatible to vasp.4.4-vasp.4.6
   LMAXPAW     = -100 max onsite density
   LMAXMIX     =    4 max onsite mixed and CHGCAR
   VOSKOWN=      0    Vosko Wilk Nusair interpolation
   ROPT   =    0.00000   0.00000   0.00000
 Ionic relaxation
   EDIFFG = -.1E-04   stopping-criterion for IOM
   NSW    =      0    number of steps for IOM
   NBLOCK =      1;   KBLOCK =      1    inner block; outer block
   IBRION =     -1    ionic relax: 0-MD 1-quasi-New 2-CG
   NFREE  =      0    steps in history (QN), initial steepest desc. (CG)
   ISIF   =      2    stress and relaxation
   IWAVPR =     10    prediction:  0-non 1-charg 2-wave 3-comb
   ISYM   =      1    0-nonsym 1-usesym 2-fastsym
   LCORR  =      T    Harris-Foulkes like correction to forces

   POTIM  = 0.1000    time-step for ionic-motion
   TEIN   =    0.0    initial temperature
   TEBEG  =    0.0;   TEEND  =   0.0 temperature during run
   SMASS  =  -3.00    Nose mass-parameter (am)
   estimated Nose-frequenzy (Omega)   =  0.10E-29 period in steps =****** mass=  -0.658E-27a.u.
   SCALEE = 1.0000    scale energy and forces
   NPACO  =    256;   APACO  = 16.0  distance and # of slots for P.C.
   PSTRESS=    0.0 pullay stress

  Mass of Ions in am
   POMASS =  32.07 63.55 55.85
  Ionic Valenz
   ZVAL   =   6.00 17.00 14.00
  Atomic Wigner-Seitz radii
  virtual crystal weights
   VCA    =   1.00  1.00  1.00
   NELECT =     172.0000    total number of electrons
   NUPDOWN=      -1.0000    fix difference up-down

[...]

 BZINTS: Fermi energy:  4.779960;172.000000 electrons
         Band energy:***********;  BLOECHL correction:  0.000000
 Maximum index for augmentation-charges          961 (set IRDMAX)

 initial charge from wavefunction
 First call to EWALD:  gamma=   0.267
 Maximum number of real-space cells 3x 3x 2
 Maximum number of reciprocal cells 2x 2x 4

--------------------------------------- Iteration      1(   1)  ---------------------------------------

 BZINTS: Fermi energy:  4.779960;172.000000 electrons
         Band energy:***********;  BLOECHL correction:  0.000000
 BZINTS: Fermi energy:  4.779960;172.000000 electrons
         Band energy:***********;  BLOECHL correction:  0.000000

 eigenvalue-minimisations  :     0
 total energy-change (2. order) :-0.8200948E+02  (-0.2350428E-06)
 number of electron     171.9999955 magnetization       0.0000000      0.0000000      0.0000000
 augmentation part       70.5653912 magnetization       0.0000005     -0.0000012      0.0002878

 Free energy of the ion-electron system (eV)
  alpha Z        PSCENC =       581.60253741
  Ewald energy   TEWEN  =    -15554.07415291
  -Hartree energ DENC   =    -10776.81922610
  -exchange      EXHF   =         0.00000000
  -V(xc)+E(xc)   XCENC  =       821.19366613
  PAW double counting   =     27941.00118921   -28864.00537332
  entropy T*S    EENTRO =         0.00000000
  eigenvalues    EBANDS =     -2735.92439632
  atomic energy  EATOM  =     28505.01627691
  free energy    TOTEN  =       -82.00947900 eV

  energy without entropy =      -82.00947900  energy(sigma->0) =      -82.00947900

[...]

 eigenvalue-minimisations  :     0
 total energy-change (2. order) :-0.7691233E-06  ( 0.4087478E-07)
 number of electron     171.9999955 magnetization       0.0000000      0.0000000      0.0000000
 augmentation part       70.5653912 magnetization       0.0000004     -0.0000006      0.0002878

[...]

--------------------------------------- Iteration      1(  35)  ---------------------------------------

 BZINTS: Fermi energy:  4.779960;172.000000 electrons
         Band energy:***********;  BLOECHL correction:  0.000000
 BZINTS: Fermi energy:  4.779960;172.000000 electrons
         Band energy:***********;  BLOECHL correction:  0.000000

 eigenvalue-minimisations  :     0
 total energy-change (2. order) :-0.6482878E-08  (-0.5921830E-09)
 number of electron     171.9999955 magnetization       0.0000000      0.0000000      0.0000000
 augmentation part       70.5653912 magnetization       0.0000003     -0.0000006      0.0002878

 Free energy of the ion-electron system (eV)
  alpha Z        PSCENC =       581.60253741
  Ewald energy   TEWEN  =    -15554.07415291
  -Hartree energ DENC   =    -10776.81910389
  -exchange      EXHF   =         0.00000000
  -V(xc)+E(xc)   XCENC  =       821.19360387
  PAW double counting   =     27941.00042683   -28864.00461187
  entropy T*S    EENTRO =         0.00000000
  eigenvalues    EBANDS =     -2735.92448300
  atomic energy  EATOM  =     28505.01627691
  free energy    TOTEN  =       -82.00950666 eV

  energy without entropy =      -82.00950666  energy(sigma->0) =      -82.00950666

  average scaling for gradient   0.8717

 average (electrostatic) potential at core
  the test charge radii are     0.9698  0.8297  0.9500
  (the norm of the test charge is              1.0000)
       1 -86.7292       2 -86.7292       3 -86.7306       4 -86.7306       5 -86.7292
       6 -86.7292       7 -86.7306       8 -86.7306       9 -80.7803      10 -80.7803
      11 -80.7803      12 -80.7803      13 -80.3797      14 -80.3797      15 -80.3797
      16 -80.3797

 E-fermi :   4.7800     XC(G=0): -10.4046     alpha+bet :-10.4132

 k-point     1 :       0.0000    0.0000    0.0000
  band No.  band energies     occupation
      1     -64.3867      1.00000
      2     -64.3867      1.00000
      3     -64.3867      1.00000
      4     -64.3867      1.00000
      5     -64.3667      1.00000
      6     -64.3667      1.00000
      7     -64.3667      1.00000
      8     -64.3667      1.00000
      9     -64.3577      1.00000
     10     -64.3577      1.00000
     11     -64.3577      1.00000
     12     -64.3577      1.00000
     13     -64.3504      1.00000
     14     -64.3504      1.00000
     15     -64.3504      1.00000
     16     -64.3504      1.00000
     17     -64.3431      1.00000
     18     -64.3431      1.00000
     19     -64.3431      1.00000
     20     -64.3431      1.00000
     21     -64.3385      1.00000
     22     -64.3385      1.00000
     23     -64.3385      1.00000
     24     -64.3385      1.00000
     25     -52.0507      1.00000
     26     -52.0507      1.00000
     27     -52.0507      1.00000
     28     -52.0507      1.00000
     29     -52.0165      1.00000
     30     -52.0165      1.00000
     31     -52.0165      1.00000
     32     -52.0165      1.00000
     33     -51.9844      1.00000
     34     -51.9844      1.00000
     35     -51.9844      1.00000
     36     -51.9844      1.00000
     37     -47.8898      1.00000
     38     -47.8898      1.00000
     39     -47.8898      1.00000
     40     -47.8898      1.00000
     41     -47.8609      1.00000
     42     -47.8609      1.00000
     43     -47.8609      1.00000
     44     -47.8609      1.00000
     45     -47.8570      1.00000
     46     -47.8570      1.00000
     47     -47.8570      1.00000
     48     -47.8570      1.00000
     49      -9.1641      1.00000
     50      -9.1641      1.00000
     51      -8.5813      1.00000
     52      -8.5813      1.00000
     53      -8.5590      1.00000
     54      -8.5590      1.00000
     55      -7.8843      1.00000
     56      -7.8843      1.00000
     57      -7.8621      1.00000
     58      -7.8621      1.00000
     59      -7.8410      1.00000
     60      -7.8410      1.00000
[...]
    194       7.4977      0.00000
    195       8.4701      0.00000
    196       8.4701      0.00000
    197       8.7309      0.00000
    198       8.7309      0.00000
    199       8.7643      0.00000
    200       8.7643      0.00000
    201       9.1720      0.00000
    202       9.1720      0.00000
    203       9.4036      0.00000
    204       9.4036      0.00000
    205       9.7369      0.00000
    206       9.7369      0.00000
    207      10.0921      0.00000
    208      10.0921      0.00000

[...]

 k-point    36 :       0.5000    0.5000    0.3333
  band No.  band energies     occupation
      1     -64.3867      1.00000
      2     -64.3867      1.00000
      3     -64.3867      1.00000
      4     -64.3867      1.00000
      5     -64.3667      1.00000
      6     -64.3667      1.00000
      7     -64.3667      1.00000
      8     -64.3667      1.00000
      9     -64.3577      1.00000
     10     -64.3577      1.00000
     11     -64.3577      1.00000
     12     -64.3577      1.00000
     13     -64.3504      1.00000
     14     -64.3504      1.00000
     15     -64.3504      1.00000
     16     -64.3504      1.00000
     17     -64.3431      1.00000
     18     -64.3431      1.00000
     19     -64.3431      1.00000
     20     -64.3431      1.00000
     21     -64.3385      1.00000
     22     -64.3385      1.00000
     23     -64.3385      1.00000
     24     -64.3385      1.00000
     25     -52.0508      1.00000
     26     -52.0508      1.00000
     27     -52.0508      1.00000
     28     -52.0508      1.00000
     29     -52.0165      1.00000
     30     -52.0165      1.00000
     31     -52.0165      1.00000
     32     -52.0165      1.00000
     33     -51.9844      1.00000
     34     -51.9844      1.00000
     35     -51.9844      1.00000
     36     -51.9844      1.00000
     37     -47.8898      1.00000
     38     -47.8898      1.00000
     39     -47.8898      1.00000
     40     -47.8898      1.00000
     41     -47.8609      1.00000
     42     -47.8609      1.00000
     43     -47.8609      1.00000
     44     -47.8609      1.00000
     45     -47.8570      1.00000
     46     -47.8570      1.00000
     47     -47.8570      1.00000
     48     -47.8570      1.00000
     49      -8.2045      1.00000
     50      -8.2045      1.00000
     51      -8.2019      1.00000
     52      -8.2019      1.00000
     53      -8.2005      1.00000
     54      -8.2005      1.00000
     55      -8.1984      1.00000
     56      -8.1984      1.00000
     57      -8.1897      1.00000
     58      -8.1897      1.00000
     59      -8.1834      1.00000
     60      -8.1834      1.00000
[...]
    194       9.2286      0.00000
    195       9.2315      0.00000
    196       9.2315      0.00000
    197       9.4012      0.00000
    198       9.4012      0.00000
    199       9.4081      0.00000
    200       9.4081      0.00000
    201       9.9857      0.00000
    202       9.9857      0.00000
    203       9.9858      0.00000
    204       9.9858      0.00000
    205      10.3284      0.00000
    206      10.3284      0.00000
    207      10.3367      0.00000
    208      10.3367      0.00000

 soft charge-density along one line, spin component           1
         0         1         2         3         4         5         6         7         8         9
 total charge-density along one line

[...]

 soft charge-density along one line, spin component           4
         0         1         2         3         4         5         6         7         8         9
 total charge-density along one line

------------------------ aborting loop because EDIFF is reached ----------------------------------------

 total charge

# of ion       s       p       d       tot
    1        1.314   2.404   0.000   3.717
    2        1.314   2.404   0.000   3.717
    3        1.313   2.406   0.000   3.719
    4        1.313   2.406   0.000   3.719
    5        1.314   2.404   0.000   3.717
    6        1.314   2.404   0.000   3.717
    7        1.313   2.406   0.000   3.719
    8        1.313   2.406   0.000   3.719
    9        0.256   6.197   8.918  15.371
   10        0.256   6.197   8.918  15.371
   11        0.256   6.197   8.918  15.371
   12        0.256   6.197   8.918  15.371
   13        0.347   6.343   5.811  12.501
   14        0.347   6.343   5.811  12.501
   15        0.347   6.343   5.811  12.501
   16        0.347   6.343   5.811  12.501
tot         12.920  69.398  58.915 141.233

 magnetization (x)

[...]

 magnetization (y)

[...]

 magnetization (z)

[...]

  FORCE on cell =-STRESS in cart. coord.  units (eV):
  Direction    XX          YY          ZZ          XY          YZ          ZX
  Alpha Z   581.60254   581.60254   581.60254
  Ewald   -5103.51833 -5327.85649 -5122.73454    -0.00000     0.00000     0.00000
  Hartree  3626.83283  3516.50223  3633.48405    -0.00000    -0.00000    -0.00000
  E(xc)   -1050.21916 -1050.35905 -1050.22166    -0.00000    -0.00000    -0.00000
  Local   -1396.21909 -1062.70931 -1381.11584    -0.00000    -0.00000    -0.00000
  n-local   120.77716   118.19587   120.85099    -0.26333    -0.04468    -0.01099
  augment  1181.76051  1180.25612  1179.76723     0.00000     0.00000     0.00000
  Kinetic  2035.97042  2044.36790  2035.62388    -0.88591     0.02394     0.00203
  Fock        0.00000     0.00000     0.00000     0.00000     0.00000     0.00000
  Total      -3.01312    -0.00019    -2.74335     0.00000     0.00000     0.00000
  in kB     -16.56988    -0.00105   -15.08637     0.00000     0.00000     0.00000

 VOLUME and BASIS-vectors are now :
  energy-cutoff  :      700.00
  volume of cell :      291.34
      direct lattice vectors                 reciprocal lattice vectors
     5.363961369  0.000000000  0.000000000     0.186429381  0.000000000  0.000000000
     0.000000000  5.116114955  0.000000000     0.000000000  0.195460815  0.000000000
     0.000000000  0.000000000 10.616501439     0.000000000  0.000000000  0.094192989

  length of vectors
     5.363961369  5.116114955 10.616501439     0.186429381  0.195460815  0.094192989

 FORCES acting on ions:
    Electron-Ion                     Ewald-Force                    Non-Local-Force
   0.431E+02 0.411E-11 0.132E-10   -.439E+02 0.142E-13 -.540E-12   0.801E+00 0.434E-18 0.000E+00
   -.431E+02 -.324E-11 0.137E-10   0.439E+02 -.284E-13 -.625E-12   -.801E+00 0.000E+00 0.000E+00
   -.386E-11 -.397E+02 0.135E-10   0.101E-12 0.404E+02 0.711E-13   -.434E-18 -.719E+00 0.000E+00
   0.471E-11 0.397E+02 0.135E-10   0.151E-13 -.404E+02 -.568E-13   -.325E-18 0.719E+00 -.434E-18
   -.431E+02 -.336E-11 0.133E-10   0.439E+02 -.222E-13 0.739E-12   -.801E+00 0.000E+00 0.000E+00
   0.431E+02 0.428E-11 0.124E-10   -.439E+02 -.684E-13 0.682E-12   0.801E+00 0.434E-18 0.000E+00
   -.356E-11 -.397E+02 0.140E-10   -.142E-13 0.404E+02 0.853E-13   -.434E-18 -.719E+00 0.000E+00
   0.403E-11 0.397E+02 0.138E-10   0.114E-12 -.404E+02 0.142E-12   -.325E-18 0.719E+00 -.434E-18
   -.551E-12 0.333E-13 0.206E+01   0.900E-05 -.221E-04 -.208E+01   -.108E-18 -.867E-18 0.214E-01
   0.975E-12 -.333E-13 -.206E+01   -.900E-05 -.221E-04 0.208E+01   0.000E+00 0.217E-18 -.214E-01
   0.114E-11 0.121E-10 0.206E+01   -.900E-05 0.221E-04 -.208E+01   -.108E-18 -.867E-18 0.214E-01
   -.593E-12 0.392E-11 -.206E+01   0.900E-05 0.221E-04 0.208E+01   0.000E+00 0.217E-18 -.214E-01
   -.170E-12 0.194E-12 -.492E+01   -.665E-05 0.184E-04 0.492E+01   0.867E-18 -.434E-18 -.173E-02
   0.509E-12 -.156E-12 0.492E+01   0.665E-05 0.184E-04 -.492E+01   0.173E-17 0.217E-18 0.173E-02
   0.572E-12 -.722E-12 -.492E+01   0.665E-05 -.184E-04 0.492E+01   0.867E-18 -.434E-18 -.173E-02
   -.148E-12 0.317E-12 0.492E+01   -.665E-05 -.184E-04 -.492E+01   0.173E-17 0.217E-18 0.173E-02
   0.871E-11 0.247E-10 0.667E-08   -.419E-13 0.248E-13 0.123E-12   -.107E-15 -.113E-15 -.312E-16

 POSITION                                       TOTAL-FORCE (eV/Angst)
      1.35343      1.27903      1.32706        -0.000002     -0.000000      0.000000
      4.01053      3.83709      1.32706         0.000002      0.000000     -0.000000
      1.34099      3.82582      9.28944        -0.000000     -0.000003     -0.000000
      4.02297      1.29029      9.28944        -0.000000      0.000003      0.000000
      1.32855      1.27903      6.63531         0.000002      0.000000     -0.000000
      4.03541      3.83709      6.63531        -0.000002     -0.000000      0.000000
      4.02297      1.26776      3.98119         0.000000     -0.000003     -0.000000
      1.34099      3.84835      3.98119        -0.000000      0.000003      0.000000
      0.00000      0.00000      5.30548        -0.000000      0.000000      0.000008
      2.68198      0.00000      2.65689        -0.000000      0.000000     -0.000008
      2.68198      2.55806     10.61373        -0.000000      0.000000      0.000008
      0.00000      2.55806      7.96514        -0.000000      0.000000     -0.000008
      0.00000      0.00000     10.61578        -0.000000      0.000000     -0.000009
      2.68198      0.00000      7.96310        -0.000000      0.000000      0.000009
      2.68198      2.55806      5.30753        -0.000000      0.000000     -0.000009
      0.00000      2.55806      2.65485        -0.000000      0.000000      0.000009
    total drift:                                0.000000      0.000000      0.000000

  FREE ENERGIE OF THE ION-ELECTRON SYSTEM (eV)
  free  energy   TOTEN  =       -82.00950666 eV

  energy  without entropy=      -82.00950666  energy(sigma->0) =      -82.00950666

 writing wavefunctions

 total charge

[...]

 magnetization (x)

[...]

 magnetization (y)

[...]

 magnetization (z)

# of ion       s       p       d       tot
    1        0.000  -0.003   0.000  -0.003
    2        0.000  -0.003   0.000  -0.003
    3       -0.000   0.004   0.000   0.003
    4       -0.000   0.003   0.000   0.002
    5        0.000  -0.003   0.000  -0.003
    6        0.000  -0.003   0.000  -0.003
    7       -0.000   0.004   0.000   0.003
    8       -0.000   0.003   0.000   0.002
    9        0.000   0.000   0.001   0.002
   10       -0.000  -0.000  -0.001  -0.001
   11        0.000   0.000   0.001   0.002
   12       -0.000  -0.000  -0.001  -0.001
   13        0.020   0.053   3.684   3.757
   14       -0.020  -0.053  -3.684  -3.757
   15        0.020   0.053   3.684   3.757
   16       -0.020  -0.053  -3.684  -3.757
tot          0.000  -0.000   0.000   0.000

 BZINTS: Fermi energy:  4.779960;172.000000 electrons
         Band energy:***********;  BLOECHL correction:  0.000000
 BZINTS: Fermi energy:  4.779960;172.000000 electrons
         Band energy:***********;  BLOECHL correction:  0.000000
 BZINTS: Fermi energy:  4.779960;172.000000 electrons
         Band energy:***********;  BLOECHL correction:  0.000000
 BZINTS: Fermi energy:  4.779960;172.000000 electrons
         Band energy:***********;  BLOECHL correction:  0.000000