 vasp.5.4.4.18Apr17-6-g9f103f2a35 (build Oct 30 2023 17:30:16) complex

 executed on             LinuxIFC date 2024.06.21  00:17:16

 INCAR:
 POTCAR:    PAW_PBE S 06Sep2000
 POTCAR:     PAW_PBE Cu_pv 06Sep2000
 POTCAR:     PAW_PBE Fe_pv 02Aug2007

   TITEL  = PAW_PBE S 06Sep2000
   POMASS =   32.066; ZVAL   =    6.000    mass and valenz
   ENMAX  =  258.689; ENMIN  =  194.016 eV

   TITEL  = PAW_PBE Cu_pv 06Sep2000
   POMASS =   63.546; ZVAL   =   17.000    mass and valenz
   ENMAX  =  368.648; ENMIN  =  276.486 eV

   TITEL  = PAW_PBE Fe_pv 02Aug2007
   POMASS =   55.847; ZVAL   =   14.000    mass and valenz
   ENMAX  =  293.238; ENMIN  =  219.928 eV

  PAW_PBE S 06Sep2000                   :
   PAW_PBE Cu_pv 06Sep2000              :
   PAW_PBE Fe_pv 02Aug2007              :

 POSCAR: Fe16 Cu16 S32
  positions in direct lattice
  velocities in cartesian coordinates
 exchange correlation table for  LEXCH =       14
   RHO(1)=    0.500       N(1)  =     2000
   RHO(2)=  100.500       N(2)  =     4000

 ion  position               nearest neighbor table
   1  0.126  0.125  0.121-  37 2.26  41 2.27  61 2.27  49 2.28
   2  0.626  0.125  0.121-  38 2.26  42 2.27  62 2.27  50 2.28
   3  0.126  0.625  0.121-  39 2.26  43 2.27  63 2.27  51 2.28
   4  0.626  0.625  0.121-  40 2.26  44 2.27  64 2.27  52 2.28
   5  0.374  0.375  0.121-  39 2.26  41 2.27  62 2.27  52 2.28
   6  0.874  0.375  0.121-  40 2.26  42 2.27  61 2.27  51 2.28
   7  0.374  0.875  0.121-  37 2.26  43 2.27  64 2.27  50 2.28
   8  0.874  0.875  0.121-  38 2.26  44 2.27  63 2.27  49 2.28
   9  0.125  0.374  0.871-  41 2.26  45 2.27  51 2.27  55 2.28
  10  0.625  0.374  0.871-  42 2.26  46 2.27  52 2.27  56 2.28
  11  0.125  0.874  0.871-  43 2.26  47 2.27  49 2.27  53 2.28
  12  0.625  0.874  0.871-  44 2.26  48 2.27  50 2.27  54 2.28
  13  0.375  0.126  0.871-  41 2.26  46 2.27  50 2.27  53 2.28
  14  0.875  0.126  0.871-  42 2.26  45 2.27  49 2.27  54 2.28
  15  0.375  0.626  0.871-  43 2.26  48 2.27  52 2.27  55 2.28
  16  0.875  0.626  0.871-  44 2.26  47 2.27  51 2.27  56 2.28
  17  0.124  0.125  0.621-  45 2.26  33 2.27  53 2.27  57 2.28
  18  0.624  0.125  0.621-  46 2.26  34 2.27  54 2.27  58 2.28
  19  0.124  0.625  0.621-  47 2.26  35 2.27  55 2.27  59 2.28
  20  0.624  0.625  0.621-  48 2.26  36 2.27  56 2.27  60 2.28
  21  0.376  0.375  0.621-  46 2.26  36 2.27  55 2.27  57 2.28
  22  0.876  0.375  0.621-  45 2.26  35 2.27  56 2.27  58 2.28
  23  0.376  0.875  0.621-  48 2.26  34 2.27  53 2.27  59 2.28
  24  0.876  0.875  0.621-  47 2.26  33 2.27  54 2.27  60 2.28
  25  0.375  0.124  0.371-  34 2.26  37 2.27  57 2.27  62 2.28
  26  0.875  0.124  0.371-  33 2.26  38 2.27  58 2.27  61 2.28
  27  0.375  0.624  0.371-  36 2.26  39 2.27  59 2.27  64 2.28
  28  0.875  0.624  0.371-  35 2.26  40 2.27  60 2.27  63 2.28
  29  0.125  0.376  0.371-  35 2.26  39 2.27  57 2.27  61 2.28
  30  0.625  0.376  0.371-  36 2.26  40 2.27  58 2.27  62 2.28
  31  0.125  0.876  0.371-  33 2.26  37 2.27  59 2.27  63 2.28
  32  0.625  0.876  0.371-  34 2.26  38 2.27  60 2.27  64 2.28
  33  0.000  0.000  0.503-  26 2.26  31 2.26  17 2.27  24 2.27
  34  0.500  0.000  0.503-  32 2.26  25 2.26  18 2.27  23 2.27
  35  0.000  0.500  0.503-  28 2.26  29 2.26  22 2.27  19 2.27
  36  0.500  0.500  0.503-  30 2.26  27 2.26  21 2.27  20 2.27
  37  0.250  0.000  0.253-   7 2.26   1 2.26  25 2.27  31 2.27
  38  0.750  0.000  0.253-   8 2.26   2 2.26  32 2.27  26 2.27
  39  0.250  0.500  0.253-   3 2.26   5 2.26  27 2.27  29 2.27
  40  0.750  0.500  0.253-   4 2.26   6 2.26  28 2.27  30 2.27
  41  0.250  0.250  0.003-   9 2.26  13 2.26   5 2.27   1 2.27
  42  0.750  0.250  0.003-  10 2.26  14 2.26   6 2.27   2 2.27
  43  0.250  0.750  0.003-  11 2.26  15 2.26   7 2.27   3 2.27
  44  0.750  0.750  0.003-  12 2.26  16 2.26   4 2.27   8 2.27
  45  0.000  0.250  0.753-  17 2.26  22 2.26   9 2.27  14 2.27
  46  0.500  0.250  0.753-  18 2.26  21 2.26  13 2.27  10 2.27
  47  0.000  0.750  0.753-  24 2.26  19 2.26  11 2.27  16 2.27
  48  0.500  0.750  0.753-  20 2.26  23 2.26  15 2.27  12 2.27
  49  0.000  0.000  0.004-  14 2.27  11 2.27   1 2.28   8 2.28
  50  0.500  0.000  0.004-  13 2.27  12 2.27   7 2.28   2 2.28
  51  0.000  0.500  0.004-   9 2.27  16 2.27   3 2.28   6 2.28
  52  0.500  0.500  0.004-  15 2.27  10 2.27   4 2.28   5 2.28
  53  0.250  0.000  0.754-  17 2.27  23 2.27  11 2.28  13 2.28
  54  0.750  0.000  0.754-  18 2.27  24 2.27  14 2.28  12 2.28
  55  0.250  0.500  0.754-  21 2.27  19 2.27   9 2.28  15 2.28
  56  0.750  0.500  0.754-  22 2.27  20 2.27  10 2.28  16 2.28
  57  0.250  0.250  0.504-  25 2.27  29 2.27  17 2.28  21 2.28
  58  0.750  0.250  0.504-  26 2.27  30 2.27  18 2.28  22 2.28
  59  0.250  0.750  0.504-  27 2.27  31 2.27  19 2.28  23 2.28
  60  0.750  0.750  0.504-  28 2.27  32 2.27  20 2.28  24 2.28
  61  0.000  0.250  0.254-   1 2.27   6 2.27  26 2.28  29 2.28
  62  0.500  0.250  0.254-   5 2.27   2 2.27  30 2.28  25 2.28
  63  0.000  0.750  0.254-   3 2.27   8 2.27  28 2.28  31 2.28
  64  0.500  0.750  0.254-   4 2.27   7 2.27  32 2.28  27 2.28

  LATTYP: Found a base centered orthorhombic cell.
 ALAT       =    14.3306757474
 B/A-ratio  =     1.0723573463
 C/A-ratio  =     0.7278385459

  Lattice vectors:

 A1 = (  10.4999280000,   0.3666100000,   0.0000000000)
 A2 = (  -0.3666100000, -10.4999280000,   0.0000000000)
 A3 = (   0.0000000000,   0.0000000000, -10.4304181975)

Analysis of symmetry for initial positions (statically):
 Subroutine PRICEL returns following result:

  LATTYP: Found a face centered orthorhombic cell.
 ALAT       =     7.1653378737
 B/A-ratio  =     1.0723573463
 C/A-ratio  =     1.4556770918

[...]

   8 primitive cells build up your supercell.

 Routine SETGRP: Setting up the symmetry group for a
 base centered orthorhombic supercell.

 Subroutine GETGRP returns: Found  4 space group operations
 (whereof  2 operations were pure point group operations)
 out of a pool of  8 trial point group operations.

The static configuration has the point symmetry C_2 .
 The point group associated with its full space group is C_2v.

Analysis of symmetry for dynamics (positions and initial velocities):
 Subroutine PRICEL returns following result:

[...]

The dynamic configuration has the point symmetry C_2 .
 The point group associated with its full space group is C_2v.

Analysis of structural, dynamic, and magnetic symmetry:
 Subroutine PRICEL returns following result:

  LATTYP: Found a face centered orthorhombic cell.
 ALAT       =     7.1653378737
 B/A-ratio  =     1.0723573463
 C/A-ratio  =     1.4556770918

  Lattice vectors:

 A1 = (  -2.7166345000,  -2.7166345000,   5.2152090987)
 A2 = (  -2.5333295000,   2.5333295000,   5.2152090987)
 A3 = (  -5.2499640000,  -0.1833050000,   0.0000000000)

   8 primitive cells build up your supercell.

 Routine SETGRP: Setting up the symmetry group for a
 base centered orthorhombic supercell.

 Subroutine GETGRP returns: Found  4 space group operations
 (whereof  2 operations were pure point group operations)
 out of a pool of  8 trial point group operations.

The magnetic configuration has the point symmetry C_2 .
 The point group associated with its full space group is C_2v.

 Subroutine INISYM returns: Found  4 space group operations
 (whereof  2 operations are pure point group operations),
 and found     8 'primitive' translations

 KPOINTS: Automatic mesh

Automatic generation of k-mesh.
Space group operators:
 irot       det(A)        alpha          n_x          n_y          n_z        tau_x        tau_y        tau_z
    1     1.000000     0.000001     1.000000     0.000000     0.000000     0.000000     0.000000     0.000000
    2     1.000000   180.000000     0.000000     0.000000     1.000000     0.000000     0.000000     0.000000
    3    -1.000000   180.000000     0.707107     0.707107     0.000000    -0.750000     0.000000     0.750000
    4    -1.000000   180.000000     0.707107    -0.707107     0.000000    -0.750000     0.000000     0.750000

 Subroutine IBZKPT returns following result:

 Found     21 irreducible k-points:

 Following reciprocal coordinates:
            Coordinates               Weight
  0.000000  0.000000  0.000000      1.000000
  0.250000  0.000000  0.000000      4.000000
  0.500000  0.000000  0.000000      2.000000
  0.250000  0.250000  0.000000      2.000000
  0.500000  0.250000  0.000000      4.000000
 -0.250000  0.250000  0.000000      2.000000
  0.500000  0.500000  0.000000      1.000000
  0.000000  0.000000  0.250000      2.000000
  0.250000  0.000000  0.250000      8.000000
  0.500000  0.000000  0.250000      4.000000
  0.250000  0.250000  0.250000      4.000000
  0.500000  0.250000  0.250000      8.000000
 -0.250000  0.250000  0.250000      4.000000
  0.500000  0.500000  0.250000      2.000000
  0.000000  0.000000  0.500000      1.000000
  0.250000  0.000000  0.500000      4.000000
  0.500000  0.000000  0.500000      2.000000
  0.250000  0.250000  0.500000      2.000000
  0.500000  0.250000  0.500000      4.000000
 -0.250000  0.250000  0.500000      2.000000
  0.500000  0.500000  0.500000      1.000000

 Following cartesian coordinates:
            Coordinates               Weight
  0.000000  0.000000  0.000000      1.000000
  0.023839 -0.000832  0.000000      4.000000
  0.047677 -0.001665  0.000000      2.000000
  0.023006  0.023006  0.000000      2.000000
  0.046845  0.022174  0.000000      4.000000
 -0.024671  0.024671  0.000000      2.000000
  0.046013  0.046013  0.000000      1.000000
  0.000000  0.000000  0.023968      2.000000
  0.023839 -0.000832  0.023968      8.000000
  0.047677 -0.001665  0.023968      4.000000
  0.023006  0.023006  0.023968      4.000000
  0.046845  0.022174  0.023968      8.000000
 -0.024671  0.024671  0.023968      4.000000
  0.046013  0.046013  0.023968      2.000000
  0.000000  0.000000  0.047937      1.000000
  0.023839 -0.000832  0.047937      4.000000
  0.047677 -0.001665  0.047937      2.000000
  0.023006  0.023006  0.047937      2.000000
  0.046845  0.022174  0.047937      4.000000
 -0.024671  0.024671  0.047937      2.000000
  0.046013  0.046013  0.047937      1.000000

 TETIRR: Found     96 inequivalent tetrahedra from      384

 Subroutine IBZKPT_HF returns following result:

 Found     64 k-points in 1st BZ
 the following     64 k-points will be used (e.g. in the exchange kernel)
 Following reciprocal coordinates:   # in IRBZ
  0.000000  0.000000  0.000000    0.01562500   1 t-inv F
  0.250000  0.000000  0.000000    0.01562500   2 t-inv F
  0.500000  0.000000  0.000000    0.01562500   3 t-inv F
  0.250000  0.250000  0.000000    0.01562500   4 t-inv F
  0.500000  0.250000  0.000000    0.01562500   5 t-inv F
 -0.250000  0.250000  0.000000    0.01562500   6 t-inv F
  0.500000  0.500000  0.000000    0.01562500   7 t-inv F
  0.000000  0.000000  0.250000    0.01562500   8 t-inv F
  0.250000  0.000000  0.250000    0.01562500   9 t-inv F
  0.500000  0.000000  0.250000    0.01562500  10 t-inv F
  0.250000  0.250000  0.250000    0.01562500  11 t-inv F
  0.500000  0.250000  0.250000    0.01562500  12 t-inv F
 -0.250000  0.250000  0.250000    0.01562500  13 t-inv F
[...]
   0.420E+02 -.508E+00 0.214E+02   -.428E+02 0.483E+00 -.216E+02   0.851E+00 0.262E-01 0.214E+00   -.125E-04 -.102E-05 -.639E-05
   -.420E+02 0.508E+00 0.214E+02   0.428E+02 -.483E+00 -.216E+02   -.851E+00 -.262E-01 0.214E+00   0.125E-04 0.102E-05 -.639E-05
   -.420E+02 0.508E+00 0.214E+02   0.428E+02 -.483E+00 -.216E+02   -.851E+00 -.262E-01 0.214E+00   0.125E-04 0.102E-05 -.639E-05
   -.420E+02 0.508E+00 0.214E+02   0.428E+02 -.483E+00 -.216E+02   -.851E+00 -.262E-01 0.214E+00   0.125E-04 0.102E-05 -.639E-05
   -.420E+02 0.508E+00 0.214E+02   0.428E+02 -.483E+00 -.216E+02   -.851E+00 -.262E-01 0.214E+00   0.125E-04 0.102E-05 -.639E-05
   0.508E+00 -.420E+02 0.214E+02   -.483E+00 0.428E+02 -.216E+02   -.262E-01 -.851E+00 0.214E+00   0.102E-05 0.125E-04 -.639E-05
   0.508E+00 -.420E+02 0.214E+02   -.483E+00 0.428E+02 -.216E+02   -.262E-01 -.851E+00 0.214E+00   0.102E-05 0.125E-04 -.639E-05
   0.508E+00 -.420E+02 0.214E+02   -.483E+00 0.428E+02 -.216E+02   -.262E-01 -.851E+00 0.214E+00   0.102E-05 0.125E-04 -.639E-05
   0.508E+00 -.420E+02 0.214E+02   -.483E+00 0.428E+02 -.216E+02   -.262E-01 -.851E+00 0.214E+00   0.102E-05 0.125E-04 -.639E-05
   -.508E+00 0.420E+02 0.214E+02   0.483E+00 -.428E+02 -.216E+02   0.262E-01 0.851E+00 0.214E+00   -.102E-05 -.125E-04 -.639E-05
   -.508E+00 0.420E+02 0.214E+02   0.483E+00 -.428E+02 -.216E+02   0.262E-01 0.851E+00 0.214E+00   -.102E-05 -.125E-04 -.639E-05
   -.508E+00 0.420E+02 0.214E+02   0.483E+00 -.428E+02 -.216E+02   0.262E-01 0.851E+00 0.214E+00   -.102E-05 -.125E-04 -.639E-05
   -.508E+00 0.420E+02 0.214E+02   0.483E+00 -.428E+02 -.216E+02   0.262E-01 0.851E+00 0.214E+00   -.102E-05 -.125E-04 -.639E-05
   -.420E+02 0.508E+00 0.214E+02   0.428E+02 -.483E+00 -.216E+02   -.851E+00 -.262E-01 0.214E+00   0.125E-04 0.102E-05 -.639E-05
   -.420E+02 0.508E+00 0.214E+02   0.428E+02 -.483E+00 -.216E+02   -.851E+00 -.262E-01 0.214E+00   0.125E-04 0.102E-05 -.639E-05
   -.420E+02 0.508E+00 0.214E+02   0.428E+02 -.483E+00 -.216E+02   -.851E+00 -.262E-01 0.214E+00   0.125E-04 0.102E-05 -.639E-05
   -.420E+02 0.508E+00 0.214E+02   0.428E+02 -.483E+00 -.216E+02   -.851E+00 -.262E-01 0.214E+00   0.125E-04 0.102E-05 -.639E-05
   0.420E+02 -.508E+00 0.214E+02   -.428E+02 0.483E+00 -.216E+02   0.851E+00 0.262E-01 0.214E+00   -.125E-04 -.102E-05 -.639E-05
   0.420E+02 -.508E+00 0.214E+02   -.428E+02 0.483E+00 -.216E+02   0.851E+00 0.262E-01 0.214E+00   -.125E-04 -.102E-05 -.639E-05
   0.420E+02 -.508E+00 0.214E+02   -.428E+02 0.483E+00 -.216E+02   0.851E+00 0.262E-01 0.214E+00   -.125E-04 -.102E-05 -.639E-05
   0.420E+02 -.508E+00 0.214E+02   -.428E+02 0.483E+00 -.216E+02   0.851E+00 0.262E-01 0.214E+00   -.125E-04 -.102E-05 -.639E-05
   0.508E+00 -.420E+02 0.214E+02   -.483E+00 0.428E+02 -.216E+02   -.262E-01 -.851E+00 0.214E+00   0.102E-05 0.125E-04 -.639E-05
   0.508E+00 -.420E+02 0.214E+02   -.483E+00 0.428E+02 -.216E+02   -.262E-01 -.851E+00 0.214E+00   0.102E-05 0.125E-04 -.639E-05
   0.508E+00 -.420E+02 0.214E+02   -.483E+00 0.428E+02 -.216E+02   -.262E-01 -.851E+00 0.214E+00   0.102E-05 0.125E-04 -.639E-05
   0.508E+00 -.420E+02 0.214E+02   -.483E+00 0.428E+02 -.216E+02   -.262E-01 -.851E+00 0.214E+00   0.102E-05 0.125E-04 -.639E-05
   -.508E+00 0.420E+02 0.214E+02   0.483E+00 -.428E+02 -.216E+02   0.262E-01 0.851E+00 0.214E+00   -.102E-05 -.125E-04 -.639E-05
   -.508E+00 0.420E+02 0.214E+02   0.483E+00 -.428E+02 -.216E+02   0.262E-01 0.851E+00 0.214E+00   -.102E-05 -.125E-04 -.639E-05
   -.508E+00 0.420E+02 0.214E+02   0.483E+00 -.428E+02 -.216E+02   0.262E-01 0.851E+00 0.214E+00   -.102E-05 -.125E-04 -.639E-05
   -.508E+00 0.420E+02 0.214E+02   0.483E+00 -.428E+02 -.216E+02   0.262E-01 0.851E+00 0.214E+00   -.102E-05 -.125E-04 -.639E-05
   -.965E-07 -.128E-07 -.251E+02   0.121E-12 -.128E-12 0.241E+02   0.872E-19 0.108E-18 0.102E+01   -.302E-11 -.119E-10 -.244E-03
   -.965E-07 -.128E-07 -.251E+02   0.206E-12 -.114E-12 0.241E+02   -.119E-18 -.244E-18 0.102E+01   0.446E-11 -.118E-10 -.244E-03
   -.965E-07 -.128E-07 -.251E+02   0.178E-12 0.426E-13 0.241E+02   0.305E-19 -.271E-19 0.102E+01   -.683E-11 0.286E-11 -.244E-03
   -.965E-07 -.128E-07 -.251E+02   0.178E-12 0.284E-13 0.241E+02   -.154E-18 0.000E+00 0.102E+01   -.261E-11 0.144E-10 -.244E-03
   -.128E-07 -.965E-07 -.251E+02   0.853E-13 -.568E-13 0.241E+02   -.157E-19 -.686E-19 0.102E+01   -.149E-10 0.527E-11 -.244E-03
   -.128E-07 -.965E-07 -.251E+02   -.284E-13 -.568E-13 0.241E+02   -.870E-19 -.508E-19 0.102E+01   0.189E-10 0.157E-10 -.244E-03
   -.128E-07 -.965E-07 -.251E+02   0.568E-13 0.114E-12 0.241E+02   0.309E-18 -.847E-20 0.102E+01   -.333E-11 -.432E-11 -.244E-03
   -.128E-07 -.965E-07 -.251E+02   0.568E-13 0.114E-12 0.241E+02   0.244E-19 0.108E-18 0.102E+01   0.735E-13 -.153E-10 -.244E-03
   -.965E-07 -.128E-07 -.251E+02   0.924E-13 0.924E-13 0.241E+02   0.113E-18 0.244E-18 0.102E+01   0.122E-10 -.103E-10 -.244E-03
   -.965E-07 -.127E-07 -.251E+02   0.149E-12 0.853E-13 0.241E+02   -.906E-19 0.190E-18 0.102E+01   -.159E-10 -.936E-11 -.244E-03
   -.965E-07 -.128E-07 -.251E+02   0.114E-12 -.444E-14 0.241E+02   0.872E-19 0.271E-19 0.102E+01   0.549E-11 0.130E-10 -.244E-03
   -.965E-07 -.128E-07 -.251E+02   0.114E-12 -.542E-13 0.241E+02   -.440E-19 0.108E-18 0.102E+01   -.645E-11 0.234E-10 -.244E-03
   -.128E-07 -.965E-07 -.251E+02   0.355E-13 0.442E-14 0.241E+02   -.104E-18 -.254E-19 0.102E+01   0.174E-10 -.201E-11 -.244E-03
   -.128E-07 -.965E-07 -.251E+02   0.948E-13 0.612E-13 0.241E+02   -.619E-20 -.201E-18 0.102E+01   -.966E-11 -.115E-10 -.244E-03
   -.128E-07 -.965E-07 -.251E+02   0.693E-14 0.121E-12 0.241E+02   -.333E-18 -.219E-18 0.102E+01   0.424E-11 0.531E-12 -.244E-03
   -.128E-07 -.964E-07 -.251E+02   0.948E-13 0.692E-14 0.241E+02   0.959E-19 -.678E-20 0.102E+01   -.516E-11 0.116E-10 -.244E-03
   0.442E-08 -.319E-07 -.204E+02   0.101E-12 0.355E-14 0.191E+02   -.210E-17 0.651E-18 0.121E+01   0.112E-11 0.637E-11 -.118E-03
   0.443E-08 -.319E-07 -.204E+02   0.144E-12 0.000E+00 0.191E+02   0.651E-18 -.119E-17 0.121E+01   -.344E-11 0.113E-10 -.118E-03
   0.442E-08 -.319E-07 -.204E+02   0.166E-12 0.110E-12 0.191E+02   0.320E-17 -.651E-18 0.121E+01   0.945E-11 -.377E-11 -.118E-03
   0.442E-08 -.319E-07 -.204E+02   0.109E-12 0.114E-12 0.191E+02   -.168E-17 -.542E-18 0.121E+01   -.814E-12 -.129E-10 -.118E-03
   -.319E-07 0.442E-08 -.204E+02   -.128E-12 -.639E-13 0.191E+02   -.223E-17 -.867E-18 0.121E+01   0.123E-10 -.411E-11 -.118E-03
   -.318E-07 0.442E-08 -.204E+02   -.124E-12 -.568E-13 0.191E+02   -.952E-18 -.130E-17 0.121E+01   -.142E-10 -.121E-10 -.118E-03
   -.319E-07 0.441E-08 -.204E+02   -.135E-12 -.121E-12 0.191E+02   0.300E-17 -.325E-18 0.121E+01   0.390E-11 0.954E-12 -.118E-03
   -.319E-07 0.441E-08 -.204E+02   -.103E-12 -.128E-12 0.191E+02   0.105E-17 0.184E-17 0.121E+01   -.301E-11 0.146E-10 -.118E-03
   0.442E-08 -.319E-07 -.204E+02   0.568E-13 0.560E-13 0.191E+02   -.393E-18 0.000E+00 0.121E+01   -.683E-11 0.828E-11 -.118E-03
   0.443E-08 -.319E-07 -.204E+02   0.995E-13 0.105E-12 0.191E+02   0.474E-18 0.651E-18 0.121E+01   0.670E-11 0.901E-11 -.118E-03
   0.442E-08 -.318E-07 -.204E+02   0.568E-13 0.114E-12 0.191E+02   0.164E-17 -.173E-17 0.121E+01   -.452E-11 -.121E-10 -.118E-03
   0.443E-08 -.318E-07 -.204E+02   0.995E-13 0.120E-12 0.191E+02   -.156E-18 0.239E-17 0.121E+01   0.608E-11 -.797E-11 -.118E-03
   -.319E-07 0.443E-08 -.204E+02   -.102E-12 -.170E-12 0.191E+02   0.234E-18 0.325E-18 0.121E+01   -.825E-11 -.352E-11 -.118E-03
   -.318E-07 0.443E-08 -.204E+02   -.400E-13 -.107E-12 0.191E+02   -.306E-17 0.130E-17 0.121E+01   0.123E-11 0.764E-11 -.118E-03
   -.319E-07 0.443E-08 -.204E+02   -.116E-12 -.155E-12 0.191E+02   -.138E-17 0.000E+00 0.121E+01   -.784E-12 -.518E-12 -.118E-03
   -.319E-07 0.444E-08 -.204E+02   -.251E-13 -.106E-12 0.191E+02   0.185E-17 -.108E-17 0.121E+01   -.143E-11 -.885E-11 -.118E-03
   -.768E-06 -.768E-06 -.424E+02   0.291E-12 0.453E-12 0.682E-12   -.774E-15 0.110E-15 0.425E+02   -.577E-11 0.244E-11 -.599E-02

 POSITION                                       TOTAL-FORCE (eV/Angst)
      1.37029      1.36294      1.26328        -0.000022      0.000280      0.000074
      6.62025      1.54625      1.26328        -0.000022      0.000280      0.000074
      1.55359      6.61291      1.26328        -0.000022      0.000280      0.000074
      6.80355      6.79621      1.26328        -0.000022      0.000280      0.000074
      4.06298      4.07033      1.26328         0.000022     -0.000280      0.000074
      9.31295      4.25363      1.26328         0.000022     -0.000280      0.000074
      4.24629      9.32029      1.26328         0.000022     -0.000280      0.000074
      9.49625      9.50359      1.26328         0.000022     -0.000280      0.000074
      1.44534      3.97133      9.08609        -0.000280      0.000022      0.000074
      6.69531      4.15464      9.08609        -0.000280      0.000022      0.000074
      1.62865      9.22129      9.08609        -0.000280      0.000022      0.000074
      6.87861      9.40460      9.08609        -0.000280      0.000022      0.000074
      3.98793      1.46194      9.08609         0.000280     -0.000022      0.000074
      9.23789      1.64524      9.08609         0.000280     -0.000022      0.000074
      4.17123      6.71190      9.08609         0.000280     -0.000022      0.000074
      9.42119      6.89521      9.08609         0.000280     -0.000022      0.000074
      1.34635      1.35369      6.47849         0.000022     -0.000280      0.000074
      6.59631      1.53700      6.47849         0.000022     -0.000280      0.000074
      1.52965      6.60365      6.47849         0.000022     -0.000280      0.000074
      6.77962      6.78696      6.47849         0.000022     -0.000280      0.000074
      4.08692      4.07958      6.47849        -0.000022      0.000280      0.000074
      9.33688      4.26288      6.47849        -0.000022      0.000280      0.000074
      4.27023      9.32954      6.47849        -0.000022      0.000280      0.000074
      9.52019      9.51285      6.47849        -0.000022      0.000280      0.000074
      3.97867      1.43800      3.87088        -0.000280      0.000022      0.000074
      9.22864      1.62131      3.87088        -0.000280      0.000022      0.000074
      4.16198      6.68797      3.87088        -0.000280      0.000022      0.000074
      9.41194      6.87127      3.87088        -0.000280      0.000022      0.000074
      1.45460      3.99527      3.87088         0.000280     -0.000022      0.000074
      6.70456      4.17857      3.87088         0.000280     -0.000022      0.000074
      1.63790      9.24523      3.87088         0.000280     -0.000022      0.000074
      6.88787      9.42854      3.87088         0.000280     -0.000022      0.000074
      0.00000      0.00000      5.25045        -0.000000      0.000000     -0.000731
      5.24996      0.18330      5.25045        -0.000000      0.000000     -0.000731
      0.18330      5.24996      5.25045        -0.000000      0.000000     -0.000731
      5.43327      5.43327      5.25045        -0.000000      0.000000     -0.000731
      2.62498      0.09165      2.64285        -0.000000      0.000000     -0.000731
      7.87495      0.27496      2.64285        -0.000000      0.000000     -0.000731
      2.80829      5.34162      2.64285        -0.000000      0.000000     -0.000731
      8.05825      5.52492      2.64285        -0.000000      0.000000     -0.000731
      2.71663      2.71663      0.03524        -0.000000      0.000000     -0.000731
      7.96660      2.89994      0.03524        -0.000000      0.000000     -0.000731
      2.89994      7.96660      0.03524        -0.000000      0.000000     -0.000731
      8.14990      8.14990      0.03524        -0.000000      0.000000     -0.000731
      0.09165      2.62498      7.85806        -0.000000      0.000000     -0.000731
      5.34162      2.80829      7.85806        -0.000000      0.000000     -0.000731
      0.27496      7.87495      7.85806        -0.000000      0.000000     -0.000731
      5.52492      8.05825      7.85806        -0.000000      0.000000     -0.000731
      0.00000      0.00000      0.04581        -0.000000      0.000000      0.000583
      5.24996      0.18330      0.04581        -0.000000      0.000000      0.000583
      0.18330      5.24996      0.04581        -0.000000      0.000000      0.000583
      5.43327      5.43327      0.04581        -0.000000      0.000000      0.000583
      2.62498      0.09165      7.86862        -0.000000      0.000000      0.000583
      7.87495      0.27496      7.86862        -0.000000      0.000000      0.000583
      2.80829      5.34162      7.86862        -0.000000      0.000000      0.000583
      8.05825      5.52492      7.86862        -0.000000      0.000000      0.000583
      2.71663      2.71663      5.26102        -0.000000      0.000000      0.000583
      7.96660      2.89994      5.26102        -0.000000      0.000000      0.000583
      2.89994      7.96660      5.26102        -0.000000      0.000000      0.000583
      8.14990      8.14990      5.26102        -0.000000      0.000000      0.000583
      0.09165      2.62498      2.65341        -0.000000      0.000000      0.000583
      5.34162      2.80829      2.65341        -0.000000      0.000000      0.000583
      0.27496      7.87495      2.65341        -0.000000      0.000000      0.000583
      5.52492      8.05825      2.65341        -0.000000      0.000000      0.000583
    total drift:                               -0.000001     -0.000001      0.023689

  FREE ENERGIE OF THE ION-ELECTRON SYSTEM (eV)
  free  energy   TOTEN  =      -327.60670766 eV

  energy  without entropy=     -327.60670766  energy(sigma->0) =     -327.60670766

 writing wavefunctions

 total charge

[...]

 magnetization (x)

# of ion       s       p       d       tot
    1       -0.001  -0.017   0.000  -0.018
    2       -0.001  -0.017   0.000  -0.018
    3       -0.001  -0.017   0.000  -0.018
    4       -0.001  -0.017   0.000  -0.018
    5       -0.001  -0.017   0.000  -0.018
    6       -0.001  -0.017   0.000  -0.018
    7       -0.001  -0.017   0.000  -0.018
    8       -0.001  -0.017   0.000  -0.018
    9        0.001   0.017   0.000   0.018
   10        0.001   0.017   0.000   0.018
   11        0.001   0.017   0.000   0.018
   12        0.001   0.017   0.000   0.018
   13        0.001   0.017   0.000   0.018
   14        0.001   0.017   0.000   0.018
   15        0.001   0.017   0.000   0.018
   16        0.001   0.017   0.000   0.018
   17       -0.001  -0.017   0.000  -0.018
   18       -0.001  -0.017   0.000  -0.018
   19       -0.001  -0.017   0.000  -0.018
   20       -0.001  -0.017   0.000  -0.018
   21       -0.001  -0.017   0.000  -0.018
   22       -0.001  -0.017   0.000  -0.018
   23       -0.001  -0.017   0.000  -0.018
   24       -0.001  -0.017   0.000  -0.018
   25        0.001   0.017   0.000   0.018
   26        0.001   0.017   0.000   0.018
   27        0.001   0.017   0.000   0.018
   28        0.001   0.017   0.000   0.018
   29        0.001   0.017   0.000   0.018
   30        0.001   0.017   0.000   0.018
   31        0.001   0.017   0.000   0.018
   32        0.001   0.017   0.000   0.018
   33        0.000   0.000   0.001   0.001
   34        0.000   0.000   0.001   0.001
   35        0.000   0.000   0.001   0.001
   36        0.000   0.000   0.001   0.001
   37       -0.000  -0.000  -0.001  -0.002
   38       -0.000  -0.000  -0.001  -0.002
   39       -0.000  -0.000  -0.001  -0.002
   40       -0.000  -0.000  -0.001  -0.002
   41        0.000   0.000   0.001   0.001
   42        0.000   0.000   0.001   0.001
   43        0.000   0.000   0.001   0.001
   44        0.000   0.000   0.001   0.001
   45       -0.000  -0.000  -0.001  -0.002
   46       -0.000  -0.000  -0.001  -0.002
   47       -0.000  -0.000  -0.001  -0.002
   48       -0.000  -0.000  -0.001  -0.002
   49        0.020   0.053   3.670   3.743
   50        0.020   0.053   3.670   3.743
   51        0.020   0.053   3.670   3.743
   52        0.020   0.053   3.670   3.743
   53       -0.020  -0.053  -3.670  -3.743
   54       -0.020  -0.053  -3.670  -3.743
   55       -0.020  -0.053  -3.670  -3.743
   56       -0.020  -0.053  -3.670  -3.743
   57        0.020   0.053   3.670   3.743
   58        0.020   0.053   3.670   3.743
   59        0.020   0.053   3.670   3.743
   60        0.020   0.053   3.670   3.743
   61       -0.020  -0.053  -3.670  -3.743
   62       -0.020  -0.053  -3.670  -3.743
   63       -0.020  -0.053  -3.670  -3.743
   64       -0.020  -0.053  -3.670  -3.743
tot         -0.001   0.001  -0.001  -0.001

 BZINTS: Fermi energy:  4.920747;688.000000 electrons
         Band energy:***********;  BLOECHL correction:  0.000000