 vasp.5.4.4.18Apr17-6-g9f103f2a35 (build Oct 30 2023 17:49:44) complex

 executed on             LinuxIFC date 2024.12.11  06:03:44

 INCAR:
 POTCAR:    PAW_PBE S 06Sep2000
 POTCAR:     PAW_PBE Cu_pv 06Sep2000
 POTCAR:     PAW_PBE Fe_pv 02Aug2007
 POTCAR:    PAW_PBE S 06Sep2000
   VRHFIN =S : s2p4

   TITEL  = PAW_PBE S 06Sep2000
   POMASS =   32.066; ZVAL   =    6.000    mass and valenz
   ENMAX  =  258.689; ENMIN  =  194.016 eV

   TITEL  = PAW_PBE Cu_pv 06Sep2000
   POMASS =   63.546; ZVAL   =   17.000    mass and valenz
   ENMAX  =  368.648; ENMIN  =  276.486 eV

   TITEL  = PAW_PBE Fe_pv 02Aug2007
   POMASS =   55.847; ZVAL   =   14.000    mass and valenz
   ENMAX  =  293.238; ENMIN  =  219.928 eV

  PAW_PBE S 06Sep2000                   :
   PAW_PBE Cu_pv 06Sep2000              :
   PAW_PBE Fe_pv 02Aug2007              :

 POSCAR: sm_isp_SD0310437-standardized_unitcell
  positions in direct lattice
  velocities in cartesian coordinates
 exchange correlation table for  LEXCH =       14
   RHO(1)=    0.500       N(1)  =     2000
   RHO(2)=  100.500       N(2)  =     4000

 ion  position               nearest neighbor table
   1  0.252  0.250  0.125-  10 2.28  11 2.28  13 2.29  16 2.29
   2  0.748  0.750  0.125-  10 2.28  11 2.28  13 2.29  16 2.29
   3  0.250  0.748  0.875-  11 2.28  12 2.28  13 2.29  14 2.29
   4  0.750  0.252  0.875-  11 2.28  12 2.28  13 2.29  14 2.29
   5  0.248  0.250  0.625-   9 2.28  12 2.28  14 2.29  15 2.29
   6  0.752  0.750  0.625-   9 2.28  12 2.28  14 2.29  15 2.29
   7  0.750  0.248  0.375-   9 2.28  10 2.28  15 2.29  16 2.29
   8  0.250  0.752  0.375-   9 2.28  10 2.28  15 2.29  16 2.29
   9  0.000  0.000  0.500-   7 2.28   8 2.28   5 2.28   6 2.28
  10  0.500  0.000  0.250-   7 2.28   8 2.28   1 2.28   2 2.28
  11  0.500  0.500  1.000-   4 2.28   3 2.28   1 2.28   2 2.28
  12  0.000  0.500  0.750-   4 2.28   3 2.28   5 2.28   6 2.28
  13  0.000  0.000  1.000-   3 2.29   4 2.29   2 2.29   1 2.29
  14  0.500  0.000  0.750-   3 2.29   4 2.29   6 2.29   5 2.29
  15  0.500  0.500  0.500-   8 2.29   7 2.29   6 2.29   5 2.29
  16  0.000  0.500  0.250-   8 2.29   7 2.29   2 2.29   1 2.29

  LATTYP: Found a simple orthorhombic cell.
 ALAT       =     5.0445883455
 B/A-ratio  =     1.0737346349
 C/A-ratio  =     2.1251654352

  Lattice vectors:

 A1 = (   0.0000000000,  -5.0445883455,   0.0000000000)
 A2 = (  -5.4165492252,   0.0000000000,   0.0000000000)
 A3 = (   0.0000000000,   0.0000000000, -10.7205847866)

Analysis of symmetry for initial positions (statically):
 Subroutine PRICEL returns following result:

  LATTYP: Found a body centered orthorhombic cell.
 ALAT       =     5.0445883455
 B/A-ratio  =     1.0737346349
 C/A-ratio  =     2.1251654352

[...]

   2 primitive cells build up your supercell.

 Routine SETGRP: Setting up the symmetry group for a
 simple orthorhombic supercell.

 Subroutine GETGRP returns: Found  4 space group operations
 (whereof  2 operations were pure point group operations)
 out of a pool of  8 trial point group operations.

The static configuration has the point symmetry C_2 .
 The point group associated with its full space group is D_2 .

Analysis of symmetry for dynamics (positions and initial velocities):
 Subroutine PRICEL returns following result:

[...]

The dynamic configuration has the point symmetry C_2 .
 The point group associated with its full space group is D_2 .

Analysis of structural, dynamic, and magnetic symmetry:
 Subroutine PRICEL returns following result:

  LATTYP: Found a body centered orthorhombic cell.
 ALAT       =     5.0445883455
 B/A-ratio  =     1.0737346349
 C/A-ratio  =     2.1251654352

  Lattice vectors:

 A1 = (  -2.7082746126,  -2.5222941727,   5.3602923933)
 A2 = (   2.7082746126,   2.5222941727,   5.3602923933)
 A3 = (  -2.7082746126,   2.5222941727,  -5.3602923933)

   2 primitive cells build up your supercell.

 Routine SETGRP: Setting up the symmetry group for a
 simple orthorhombic supercell.

 Subroutine GETGRP returns: Found  4 space group operations
 (whereof  2 operations were pure point group operations)
 out of a pool of  8 trial point group operations.

The (compounded) configuration has the point symmetry C_2 .
 The point group associated with its full space group is D_2 .

 Subroutine INISYM returns: Found  4 space group operations
 (whereof  2 operations are pure point group operations),
 and found     2 'primitive' translations

 KPOINTS: Automatic mesh

Automatic generation of k-mesh.
Space group operators:
 irot       det(A)        alpha          n_x          n_y          n_z        tau_x        tau_y        tau_z
    1     1.000000     0.000001     1.000000     0.000000     0.000000     0.000000     0.000000     0.000000
    2     1.000000   179.999999     0.000000     0.000000     1.000000     0.000000     0.000000     0.000000
    3     1.000000   180.000000     1.000000     0.000000     0.000000     0.000000     0.500000     0.250000
    4     1.000000   180.000000     0.000000     1.000000     0.000000     0.000000     0.500000     0.250000

 Subroutine IBZKPT returns following result:

 Found     36 irreducible k-points:

 Following reciprocal coordinates:
            Coordinates               Weight
  0.000000  0.000000  0.000000      1.000000
  0.166667  0.000000  0.000000      2.000000
  0.333333  0.000000  0.000000      2.000000
  0.500000  0.000000  0.000000      1.000000
  0.000000  0.166667  0.000000      2.000000
  0.166667  0.166667  0.000000      4.000000
  0.333333  0.166667  0.000000      4.000000
  0.500000  0.166667  0.000000      2.000000
  0.000000  0.333333  0.000000      2.000000
  0.166667  0.333333  0.000000      4.000000
  0.333333  0.333333  0.000000      4.000000
  0.500000  0.333333  0.000000      2.000000
  0.000000  0.500000  0.000000      1.000000
  0.166667  0.500000  0.000000      2.000000
  0.333333  0.500000  0.000000      2.000000
  0.500000  0.500000  0.000000      1.000000
  0.000000  0.000000  0.333333      2.000000
  0.166667  0.000000  0.333333      4.000000
  0.333333  0.000000  0.333333      4.000000
  0.500000  0.000000  0.333333      2.000000
  0.000000  0.166667  0.333333      4.000000
  0.166667  0.166667  0.333333      4.000000
  0.333333  0.166667  0.333333      4.000000
  0.500000  0.166667  0.333333      4.000000
 -0.333333  0.166667  0.333333      4.000000
 -0.166667  0.166667  0.333333      4.000000
  0.000000  0.333333  0.333333      4.000000
  0.166667  0.333333  0.333333      4.000000
  0.333333  0.333333  0.333333      4.000000
  0.500000  0.333333  0.333333      4.000000
 -0.333333  0.333333  0.333333      4.000000
 -0.166667  0.333333  0.333333      4.000000
  0.000000  0.500000  0.333333      2.000000
  0.166667  0.500000  0.333333      4.000000
  0.333333  0.500000  0.333333      4.000000
  0.500000  0.500000  0.333333      2.000000

 Following cartesian coordinates:
            Coordinates               Weight
  0.000000  0.000000  0.000000      1.000000
  0.030770  0.000000  0.000000      2.000000
  0.061540  0.000000  0.000000      2.000000
  0.092310  0.000000  0.000000      1.000000
  0.000000  0.033039  0.000000      2.000000
  0.030770  0.033039  0.000000      4.000000
  0.061540  0.033039  0.000000      4.000000
  0.092310  0.033039  0.000000      2.000000
  0.000000  0.066077  0.000000      2.000000
  0.030770  0.066077  0.000000      4.000000
  0.061540  0.066077  0.000000      4.000000
  0.092310  0.066077  0.000000      2.000000
  0.000000  0.099116  0.000000      1.000000
  0.030770  0.099116  0.000000      2.000000
  0.061540  0.099116  0.000000      2.000000
  0.092310  0.099116  0.000000      1.000000
  0.000000  0.000000  0.031093      2.000000
  0.030770  0.000000  0.031093      4.000000
  0.061540  0.000000  0.031093      4.000000
  0.092310  0.000000  0.031093      2.000000
  0.000000  0.033039  0.031093      4.000000
  0.030770  0.033039  0.031093      4.000000
  0.061540  0.033039  0.031093      4.000000
  0.092310  0.033039  0.031093      4.000000
 -0.061540  0.033039  0.031093      4.000000
 -0.030770  0.033039  0.031093      4.000000
  0.000000  0.066077  0.031093      4.000000
  0.030770  0.066077  0.031093      4.000000
  0.061540  0.066077  0.031093      4.000000
  0.092310  0.066077  0.031093      4.000000
 -0.061540  0.066077  0.031093      4.000000
 -0.030770  0.066077  0.031093      4.000000
  0.000000  0.099116  0.031093      2.000000
  0.030770  0.099116  0.031093      4.000000
  0.061540  0.099116  0.031093      4.000000
  0.092310  0.099116  0.031093      2.000000

 TETIRR: Found    544 inequivalent tetrahedra from      648

 SYSTEM =  CuFeS2
 POSCAR =  sm_isp_SD0310437-standardized_unitcell

 Startparameter for this run:
   NWRITE =      2    write-flag & timer
   PREC   = accura    normal or accurate (medium, high low for compatibility)
   ISTART =      1    job   : 0-new  1-cont  2-samecut
   ICHARG =      1    charge: 1-file 2-atom 10-const
   ISPIN  =      1    spin polarized calculation?
   LNONCOLLINEAR =      T non collinear calculations
   LSORBIT =      F    spin-orbit coupling
   INIWAV =      1    electr: 0-lowe 1-rand  2-diag
   LASPH  =      T    aspherical Exc in radial PAW
   METAGGA=      F    non-selfconsistent MetaGGA calc.

 Electronic Relaxation 1
   ENCUT  =  700.0 eV  51.45 Ry    7.17 a.u.  11.68 10.88 23.13*2*pi/ulx,y,z
   ENINI  =  700.0     initial cutoff
   ENAUG  =  758.2 eV  augmentation charge cutoff
   NELM   =    200;   NELMIN=  2; NELMDL=  0     # of ELM steps
   EDIFF  = 0.1E-07   stopping-criterion for ELM
   LREAL  =      F    real-space projection
   NLSPLINE    = F    spline interpolate recip. space projectors
   LCOMPAT=      F    compatible to vasp.4.4
   GGA_COMPAT  = T    GGA compatible to vasp.4.4-vasp.4.6
   LMAXPAW     = -100 max onsite density
   LMAXMIX     =    4 max onsite mixed and CHGCAR
   VOSKOWN=      0    Vosko Wilk Nusair interpolation
   ROPT   =    0.00000   0.00000   0.00000
 Ionic relaxation
   EDIFFG = -.1E-04   stopping-criterion for IOM
   NSW    =      0    number of steps for IOM
   NBLOCK =      1;   KBLOCK =      1    inner block; outer block
   IBRION =     -1    ionic relax: 0-MD 1-quasi-New 2-CG
   NFREE  =      0    steps in history (QN), initial steepest desc. (CG)
   ISIF   =      2    stress and relaxation
   IWAVPR =     10    prediction:  0-non 1-charg 2-wave 3-comb
   ISYM   =      1    0-nonsym 1-usesym 2-fastsym
   LCORR  =      T    Harris-Foulkes like correction to forces

   POTIM  = 0.1000    time-step for ionic-motion
   TEIN   =    0.0    initial temperature
   TEBEG  =    0.0;   TEEND  =   0.0 temperature during run
   SMASS  =  -3.00    Nose mass-parameter (am)
   estimated Nose-frequenzy (Omega)   =  0.10E-29 period in steps =****** mass=  -0.670E-27a.u.
   SCALEE = 1.0000    scale energy and forces
   NPACO  =    256;   APACO  = 16.0  distance and # of slots for P.C.
   PSTRESS=    0.0 pullay stress

  Mass of Ions in am
   POMASS =  32.07 63.55 55.85
  Ionic Valenz
   ZVAL   =   6.00 17.00 14.00
  Atomic Wigner-Seitz radii
  virtual crystal weights
   VCA    =   1.00  1.00  1.00
   NELECT =     172.0000    total number of electrons
   NUPDOWN=      -1.0000    fix difference up-down

[...]

 BZINTS: Fermi energy:  4.748116;172.000000 electrons
         Band energy:***********;  BLOECHL correction:  0.000000
 Maximum index for augmentation-charges          960 (set IRDMAX)

 initial charge from wavefunction
 First call to EWALD:  gamma=   0.267
 Maximum number of real-space cells 3x 3x 2
 Maximum number of reciprocal cells 2x 2x 4

--------------------------------------- Iteration      1(   1)  ---------------------------------------

 BZINTS: Fermi energy:  4.748116;172.000000 electrons
         Band energy:***********;  BLOECHL correction:  0.000000
 BZINTS: Fermi energy:  4.748116;172.000000 electrons
         Band energy:***********;  BLOECHL correction:  0.000000

 eigenvalue-minimisations  :     0
 total energy-change (2. order) :-0.8194014E+02  (-0.5586955E-06)
 number of electron     171.9999835 magnetization       0.0000000      0.0000000      0.0000000
 augmentation part       70.5701276 magnetization      -0.0000015     -0.0000001      0.0004174

 Free energy of the ion-electron system (eV)
  alpha Z        PSCENC =       578.45122973
  Ewald energy   TEWEN  =    -15530.42250700
  -Hartree energ DENC   =    -10790.28541768
  -exchange      EXHF   =         0.00000000
  -V(xc)+E(xc)   XCENC  =       820.98333171
  PAW double counting   =     27877.57496529   -28800.31365173
  entropy T*S    EENTRO =         0.00000000
  eigenvalues    EBANDS =     -2742.94436906
  atomic energy  EATOM  =     28505.01627691
  free energy    TOTEN  =       -81.94014184 eV

  energy without entropy =      -81.94014184  energy(sigma->0) =      -81.94014184

[...]

 eigenvalue-minimisations  :     0
 total energy-change (2. order) : 0.4148533E-06  (-0.4016155E-08)
 number of electron     171.9999835 magnetization       0.0000000      0.0000000      0.0000000
 augmentation part       70.5701278 magnetization      -0.0000008      0.0000002      0.0004174

[...]

--------------------------------------- Iteration      1(  36)  ---------------------------------------

 BZINTS: Fermi energy:  4.748116;172.000000 electrons
         Band energy:***********;  BLOECHL correction:  0.000000
 BZINTS: Fermi energy:  4.748116;172.000000 electrons
         Band energy:***********;  BLOECHL correction:  0.000000

 eigenvalue-minimisations  :     0
 total energy-change (2. order) :-0.8938514E-08  (-0.2661966E-09)
 number of electron     171.9999835 magnetization       0.0000000      0.0000000      0.0000000
 augmentation part       70.5701278 magnetization      -0.0000007      0.0000001      0.0004174

 Free energy of the ion-electron system (eV)
  alpha Z        PSCENC =       578.45122973
  Ewald energy   TEWEN  =    -15530.42250700
  -Hartree energ DENC   =    -10790.28519518
  -exchange      EXHF   =         0.00000000
  -V(xc)+E(xc)   XCENC  =       820.98325838
  PAW double counting   =     27877.57359986   -28800.31229360
  entropy T*S    EENTRO =         0.00000000
  eigenvalues    EBANDS =     -2742.94454352
  atomic energy  EATOM  =     28505.01627691
  free energy    TOTEN  =       -81.94017443 eV

  energy without entropy =      -81.94017443  energy(sigma->0) =      -81.94017443

  average scaling for gradient   0.9112

 average (electrostatic) potential at core
  the test charge radii are     0.9698  0.8297  0.9500
  (the norm of the test charge is              1.0000)
       1 -86.7711       2 -86.7711       3 -86.7733       4 -86.7733       5 -86.7711
       6 -86.7711       7 -86.7733       8 -86.7733       9 -80.8095      10 -80.8095
      11 -80.8095      12 -80.8095      13 -80.4525      14 -80.4525      15 -80.4525
      16 -80.4525

 E-fermi :   4.7481     XC(G=0): -10.3797     alpha+bet :-10.3568

 k-point     1 :       0.0000    0.0000    0.0000
  band No.  band energies     occupation
      1     -64.4171      1.00000
      2     -64.4171      1.00000
      3     -64.4171      1.00000
      4     -64.4171      1.00000
      5     -64.3969      1.00000
      6     -64.3969      1.00000
      7     -64.3969      1.00000
      8     -64.3969      1.00000
      9     -64.3890      1.00000
     10     -64.3890      1.00000
     11     -64.3890      1.00000
     12     -64.3890      1.00000
     13     -64.3817      1.00000
     14     -64.3817      1.00000
     15     -64.3817      1.00000
     16     -64.3817      1.00000
     17     -64.3687      1.00000
     18     -64.3687      1.00000
     19     -64.3687      1.00000
     20     -64.3687      1.00000
     21     -64.3642      1.00000
     22     -64.3642      1.00000
     23     -64.3642      1.00000
     24     -64.3642      1.00000
     25     -52.1475      1.00000
     26     -52.1475      1.00000
     27     -52.1475      1.00000
     28     -52.1475      1.00000
     29     -52.0804      1.00000
     30     -52.0804      1.00000
     31     -52.0804      1.00000
     32     -52.0804      1.00000
     33     -52.0509      1.00000
     34     -52.0509      1.00000
     35     -52.0509      1.00000
     36     -52.0509      1.00000
     37     -47.9679      1.00000
     38     -47.9679      1.00000
     39     -47.9679      1.00000
     40     -47.9679      1.00000
     41     -47.9227      1.00000
     42     -47.9227      1.00000
     43     -47.9226      1.00000
     44     -47.9226      1.00000
     45     -47.9192      1.00000
     46     -47.9192      1.00000
     47     -47.9192      1.00000
     48     -47.9192      1.00000
     49      -9.1833      1.00000
     50      -9.1833      1.00000
     51      -8.6133      1.00000
     52      -8.6133      1.00000
     53      -8.5896      1.00000
     54      -8.5896      1.00000
     55      -7.9291      1.00000
     56      -7.9291      1.00000
     57      -7.9059      1.00000
     58      -7.9059      1.00000
     59      -7.8698      1.00000
     60      -7.8698      1.00000
[...]
    194       7.4149      0.00000
    195       8.3209      0.00000
    196       8.3209      0.00000
    197       8.7157      0.00000
    198       8.7157      0.00000
    199       8.7518      0.00000
    200       8.7518      0.00000
    201       9.1172      0.00000
    202       9.1172      0.00000
    203       9.3285      0.00000
    204       9.3285      0.00000
    205       9.5344      0.00000
    206       9.5344      0.00000
    207      10.1077      0.00000
    208      10.1077      0.00000

[...]

 k-point    36 :       0.5000    0.5000    0.3333
  band No.  band energies     occupation
      1     -64.4171      1.00000
      2     -64.4171      1.00000
      3     -64.4171      1.00000
      4     -64.4171      1.00000
      5     -64.3969      1.00000
      6     -64.3969      1.00000
      7     -64.3969      1.00000
      8     -64.3969      1.00000
      9     -64.3890      1.00000
     10     -64.3890      1.00000
     11     -64.3890      1.00000
     12     -64.3890      1.00000
     13     -64.3816      1.00000
     14     -64.3816      1.00000
     15     -64.3816      1.00000
     16     -64.3816      1.00000
     17     -64.3687      1.00000
     18     -64.3687      1.00000
     19     -64.3687      1.00000
     20     -64.3687      1.00000
     21     -64.3642      1.00000
     22     -64.3642      1.00000
     23     -64.3642      1.00000
     24     -64.3642      1.00000
     25     -52.1475      1.00000
     26     -52.1475      1.00000
     27     -52.1475      1.00000
     28     -52.1475      1.00000
     29     -52.0804      1.00000
     30     -52.0804      1.00000
     31     -52.0804      1.00000
     32     -52.0804      1.00000
     33     -52.0508      1.00000
     34     -52.0508      1.00000
     35     -52.0508      1.00000
     36     -52.0508      1.00000
     37     -47.9679      1.00000
     38     -47.9679      1.00000
     39     -47.9679      1.00000
     40     -47.9679      1.00000
     41     -47.9227      1.00000
     42     -47.9227      1.00000
     43     -47.9227      1.00000
     44     -47.9227      1.00000
     45     -47.9192      1.00000
     46     -47.9192      1.00000
     47     -47.9192      1.00000
     48     -47.9192      1.00000
     49      -8.2325      1.00000
     50      -8.2325      1.00000
     51      -8.2275      1.00000
     52      -8.2275      1.00000
     53      -8.2255      1.00000
     54      -8.2255      1.00000
     55      -8.2248      1.00000
     56      -8.2248      1.00000
     57      -8.2155      1.00000
     58      -8.2155      1.00000
     59      -8.2076      1.00000
     60      -8.2076      1.00000
[...]
    194       9.1267      0.00000
    195       9.1308      0.00000
    196       9.1308      0.00000
    197       9.2851      0.00000
    198       9.2851      0.00000
    199       9.2948      0.00000
    200       9.2948      0.00000
    201       9.8984      0.00000
    202       9.8984      0.00000
    203       9.8984      0.00000
    204       9.8984      0.00000
    205      10.2159      0.00000
    206      10.2159      0.00000
    207      10.2283      0.00000
    208      10.2283      0.00000

 soft charge-density along one line, spin component           1
         0         1         2         3         4         5         6         7         8         9
 total charge-density along one line

[...]

 soft charge-density along one line, spin component           4
         0         1         2         3         4         5         6         7         8         9
 total charge-density along one line

------------------------ aborting loop because EDIFF is reached ----------------------------------------

 total charge

# of ion       s       p       d       tot
    1        1.314   2.400   0.000   3.714
    2        1.314   2.401   0.000   3.714
    3        1.313   2.403   0.000   3.717
    4        1.313   2.403   0.000   3.717
    5        1.314   2.401   0.000   3.714
    6        1.314   2.400   0.000   3.714
    7        1.313   2.403   0.000   3.717
    8        1.313   2.403   0.000   3.717
    9        0.254   6.194   8.919  15.367
   10        0.254   6.194   8.918  15.366
   11        0.254   6.194   8.919  15.367
   12        0.254   6.194   8.918  15.366
   13        0.345   6.339   5.806  12.491
   14        0.345   6.339   5.806  12.491
   15        0.345   6.339   5.806  12.491
   16        0.345   6.339   5.806  12.491
tot         12.906  69.348  58.899 141.153

 magnetization (x)

[...]

 magnetization (y)

[...]

 magnetization (z)

[...]

  FORCE on cell =-STRESS in cart. coord.  units (eV):
  Direction    XX          YY          ZZ          XY          YZ          ZX
  Alpha Z   578.45123   578.45123   578.45123
  Ewald   -5058.67111 -5396.69903 -5075.08736     0.00000    -0.00000     0.00000
  Hartree  3649.49917  3481.54386  3659.24216    -0.00000    -0.00000    -0.00000
  E(xc)   -1049.99527 -1050.20920 -1050.00049     0.00000    -0.00000    -0.00000
  Local   -1459.46397  -955.27786 -1450.55815     0.00000    -0.00000    -0.00000
  n-local   120.25750   116.49469   120.35813    -0.27432    -0.03504    -0.01001
  augment  1181.87364  1179.63767  1180.01839    -0.00000     0.00000     0.00000
  Kinetic  2033.54938  2046.05826  2033.49209    -0.89501     0.01700    -0.00056
  Fock        0.00000     0.00000     0.00000     0.00000     0.00000     0.00000
  Total      -4.49943    -0.00038    -4.08400     0.00000     0.00000     0.00000
  in kB     -24.60940    -0.00208   -22.33724     0.00000     0.00000     0.00000

 VOLUME and BASIS-vectors are now :
  energy-cutoff  :      700.00
  volume of cell :      292.93
      direct lattice vectors                 reciprocal lattice vectors
     5.416549225  0.000000000  0.000000000     0.184619387  0.000000000  0.000000000
     0.000000000  5.044588345  0.000000000     0.000000000  0.198232231  0.000000000
     0.000000000  0.000000000 10.720584787     0.000000000  0.000000000  0.093278494

  length of vectors
     5.416549225  5.044588345 10.720584787     0.184619387  0.198232231  0.093278494

 FORCES acting on ions:
    Electron-Ion                     Ewald-Force                    Non-Local-Force
   0.434E+02 0.199E-12 0.138E-12   -.442E+02 0.455E-12 0.000E+00   0.784E+00 -.108E-18 0.108E-18
   -.434E+02 0.474E-12 0.646E-12   0.442E+02 -.938E-12 0.568E-13   -.784E+00 0.000E+00 0.000E+00
   0.630E-12 -.384E+02 -.583E-13   -.426E-13 0.391E+02 0.426E-13   0.434E-18 -.663E+00 0.000E+00
   0.210E-12 0.384E+02 0.935E-13   0.595E-13 -.391E+02 0.114E-12   0.000E+00 0.663E+00 0.000E+00
   -.434E+02 -.448E-12 -.160E-12   0.442E+02 0.473E-12 -.284E-13   -.784E+00 0.000E+00 0.000E+00
   0.434E+02 0.101E-12 0.283E-13   -.442E+02 -.981E-12 0.711E-13   0.784E+00 -.108E-18 0.108E-18
   0.000E+00 -.384E+02 -.775E-12   -.426E-13 0.391E+02 -.853E-13   -.434E-18 -.663E+00 0.000E+00
   0.420E-12 0.384E+02 0.359E-12   0.000E+00 -.391E+02 -.568E-13   0.000E+00 0.663E+00 0.000E+00
   -.210E-12 0.451E-12 0.280E+01   0.826E-05 -.214E-04 -.284E+01   -.108E-18 0.434E-18 0.349E-01
   0.143E-11 -.361E-12 -.280E+01   -.826E-05 -.214E-04 0.284E+01   0.000E+00 0.651E-18 -.349E-01
   0.139E-11 -.276E-11 0.280E+01   -.826E-05 0.214E-04 -.284E+01   -.108E-18 -.434E-18 0.349E-01
   -.252E-12 0.341E-11 -.280E+01   0.826E-05 0.214E-04 0.284E+01   0.000E+00 0.651E-18 -.349E-01
   0.840E-13 -.101E-12 -.735E+01   -.606E-05 0.178E-04 0.735E+01   0.000E+00 0.000E+00 -.522E-02
   0.672E-12 0.958E-13 0.735E+01   0.606E-05 0.178E-04 -.735E+01   0.000E+00 0.108E-18 0.522E-02
   0.714E-12 -.315E-11 -.735E+01   0.606E-05 -.178E-04 0.735E+01   0.000E+00 0.000E+00 -.522E-02
   0.420E-13 0.608E-12 0.735E+01   -.606E-05 -.178E-04 -.735E+01   0.000E+00 0.108E-18 0.522E-02
   0.116E-10 0.526E-11 0.519E-10   -.308E-13 0.113E-13 -.693E-13   0.110E-15 -.110E-15 -.278E-16

 POSITION                                       TOTAL-FORCE (eV/Angst)
      1.36630      1.26115      1.34007         0.000004      0.000000     -0.000000
      4.05025      3.78344      1.34007        -0.000004      0.000000     -0.000000
      1.35414      3.77291      9.38051         0.000000      0.000001     -0.000000
      4.06241      1.27167      9.38051        -0.000000     -0.000001      0.000000
      1.34198      1.26115      6.70037        -0.000004      0.000000     -0.000000
      4.07457      3.78344      6.70037         0.000004      0.000000      0.000000
      4.06241      1.25062      4.02022         0.000000      0.000001      0.000000
      1.35414      3.79397      4.02022        -0.000000     -0.000001      0.000000
      0.00000      0.00000      5.35604         0.000000      0.000000     -0.000011
      2.70827      0.00000      2.68440         0.000000      0.000000      0.000011
      2.70827      2.52229     10.71633         0.000000      0.000000     -0.000011
      0.00000      2.52229      8.04469         0.000000      0.000000      0.000011
      0.00000      0.00000     10.71945         0.000000      0.000000      0.000002
      2.70827      0.00000      8.04157         0.000000      0.000000     -0.000002
      2.70827      2.52229      5.35916         0.000000      0.000000      0.000002
      0.00000      2.52229      2.68128         0.000000      0.000000     -0.000002
    total drift:                                0.000000      0.000000      0.000000

  FREE ENERGIE OF THE ION-ELECTRON SYSTEM (eV)
  free  energy   TOTEN  =       -81.94017443 eV

  energy  without entropy=      -81.94017443  energy(sigma->0) =      -81.94017443

 writing wavefunctions

 total charge

[...]

 magnetization (x)

[...]

 magnetization (y)

[...]

 magnetization (z)

# of ion       s       p       d       tot
    1        0.000  -0.003   0.000  -0.003
    2        0.000  -0.003   0.000  -0.003
    3       -0.000   0.004   0.000   0.003
    4       -0.000   0.002   0.000   0.002
    5        0.000  -0.003   0.000  -0.003
    6        0.000  -0.003   0.000  -0.003
    7       -0.000   0.004   0.000   0.003
    8       -0.000   0.002   0.000   0.002
    9        0.000  -0.000   0.002   0.002
   10       -0.000   0.000  -0.002  -0.002
   11        0.000  -0.000   0.002   0.002
   12       -0.000   0.000  -0.002  -0.002
   13        0.021   0.053   3.691   3.764
   14       -0.021  -0.053  -3.691  -3.764
   15        0.021   0.053   3.691   3.764
   16       -0.021  -0.053  -3.691  -3.764
tot          0.000  -0.000   0.001   0.000

 BZINTS: Fermi energy:  4.748116;172.000000 electrons
         Band energy:***********;  BLOECHL correction:  0.000000
 BZINTS: Fermi energy:  4.748116;172.000000 electrons
         Band energy:***********;  BLOECHL correction:  0.000000
 BZINTS: Fermi energy:  4.748116;172.000000 electrons
         Band energy:***********;  BLOECHL correction:  0.000000
 BZINTS: Fermi energy:  4.748116;172.000000 electrons
         Band energy:***********;  BLOECHL correction:  0.000000