 vasp.5.4.4.18Apr17-6-g9f103f2a35 (build Oct 30 2023 17:30:16) complex

 executed on             LinuxIFC date 2024.06.27  03:38:30

 INCAR:
 POTCAR:    PAW_PBE S 06Sep2000
 POTCAR:     PAW_PBE Cu_pv 06Sep2000
 POTCAR:     PAW_PBE Fe_pv 02Aug2007

   TITEL  = PAW_PBE S 06Sep2000
   POMASS =   32.066; ZVAL   =    6.000    mass and valenz
   ENMAX  =  258.689; ENMIN  =  194.016 eV

   TITEL  = PAW_PBE Cu_pv 06Sep2000
   POMASS =   63.546; ZVAL   =   17.000    mass and valenz
   ENMAX  =  368.648; ENMIN  =  276.486 eV

   TITEL  = PAW_PBE Fe_pv 02Aug2007
   POMASS =   55.847; ZVAL   =   14.000    mass and valenz
   ENMAX  =  293.238; ENMIN  =  219.928 eV

  PAW_PBE S 06Sep2000                   :
   PAW_PBE Cu_pv 06Sep2000              :
   PAW_PBE Fe_pv 02Aug2007              :

 POSCAR: generated by phonopy
  positions in direct lattice
  velocities in cartesian coordinates
 exchange correlation table for  LEXCH =       14
   RHO(1)=    0.500       N(1)  =     2000
   RHO(2)=  100.500       N(2)  =     4000

 ion  position               nearest neighbor table
   1  0.126  0.122  0.126-  41 2.26  61 2.27  37 2.27  49 2.29
   2  0.626  0.122  0.126-  42 2.26  62 2.27  38 2.27  50 2.29
   3  0.126  0.622  0.126-  43 2.26  63 2.27  39 2.27  51 2.29
   4  0.626  0.622  0.126-  44 2.26  64 2.27  40 2.27  52 2.29
   5  0.374  0.372  0.124-  39 2.26  52 2.27  41 2.27  62 2.29
   6  0.874  0.372  0.124-  40 2.26  51 2.27  42 2.27  61 2.29
   7  0.374  0.872  0.124-  37 2.26  50 2.27  43 2.27  64 2.29
   8  0.874  0.872  0.124-  38 2.26  49 2.27  44 2.27  63 2.29
   9  0.125  0.372  0.875-  41 2.27  45 2.27  51 2.27  55 2.27
  10  0.625  0.372  0.875-  42 2.27  46 2.27  56 2.27  52 2.27
  11  0.125  0.872  0.875-  43 2.27  47 2.27  49 2.27  53 2.27
  12  0.625  0.872  0.875-  44 2.27  48 2.27  54 2.27  50 2.27
  13  0.375  0.124  0.875-  41 2.26  46 2.26  50 2.28  53 2.28
  14  0.875  0.124  0.875-  45 2.26  42 2.26  49 2.28  54 2.28
  15  0.375  0.624  0.875-  43 2.26  48 2.26  52 2.28  55 2.28
  16  0.875  0.624  0.875-  47 2.26  44 2.26  51 2.28  56 2.28
  17  0.124  0.122  0.624-  45 2.26  57 2.27  33 2.27  53 2.29
  18  0.624  0.122  0.624-  46 2.26  58 2.27  34 2.27  54 2.29
  19  0.124  0.622  0.624-  47 2.26  59 2.27  35 2.27  55 2.29
  20  0.624  0.622  0.624-  48 2.26  60 2.27  36 2.27  56 2.29
  21  0.376  0.372  0.626-  36 2.26  55 2.27  46 2.27  57 2.29
  22  0.876  0.372  0.626-  35 2.26  56 2.27  45 2.27  58 2.29
  23  0.376  0.872  0.626-  34 2.26  53 2.27  48 2.27  59 2.29
  24  0.876  0.872  0.626-  33 2.26  54 2.27  47 2.27  60 2.29
  25  0.375  0.122  0.375-  34 2.27  37 2.27  62 2.27  57 2.27
  26  0.875  0.122  0.375-  38 2.27  33 2.27  58 2.27  61 2.27
  27  0.375  0.622  0.375-  36 2.27  39 2.27  64 2.27  59 2.27
  28  0.875  0.622  0.375-  40 2.27  35 2.27  60 2.27  63 2.27
  29  0.125  0.374  0.375-  35 2.26  39 2.26  57 2.28  61 2.28
  30  0.625  0.374  0.375-  36 2.26  40 2.26  58 2.28  62 2.28
  31  0.125  0.874  0.375-  33 2.26  37 2.26  59 2.28  63 2.28
  32  0.625  0.874  0.375-  34 2.26  38 2.26  60 2.28  64 2.28
  33  0.999  0.003  0.500-  24 2.26  31 2.26  26 2.27  17 2.27
  34  0.499  0.003  0.500-  23 2.26  32 2.26  25 2.27  18 2.27
  35  0.999  0.503  0.500-  22 2.26  29 2.26  28 2.27  19 2.27
  36  0.499  0.503  0.500-  21 2.26  30 2.26  27 2.27  20 2.27
  37  0.251  0.003  0.250-   7 2.26  31 2.26  25 2.27   1 2.27
  38  0.751  0.003  0.250-   8 2.26  32 2.26  26 2.27   2 2.27
  39  0.251  0.503  0.250-   5 2.26  29 2.26  27 2.27   3 2.27
  40  0.751  0.503  0.250-   6 2.26  30 2.26  28 2.27   4 2.27
  41  0.249  0.253  1.000-   1 2.26  13 2.26   9 2.27   5 2.27
  42  0.749  0.253  1.000-   2 2.26  14 2.26  10 2.27   6 2.27
  43  0.249  0.753  1.000-   3 2.26  15 2.26  11 2.27   7 2.27
  44  0.749  0.753  1.000-   4 2.26  16 2.26  12 2.27   8 2.27
  45  0.001  0.253  0.750-  17 2.26  14 2.26   9 2.27  22 2.27
  46  0.501  0.253  0.750-  18 2.26  13 2.26  10 2.27  21 2.27
  47  0.001  0.753  0.750-  19 2.26  16 2.26  11 2.27  24 2.27
  48  0.501  0.753  0.750-  20 2.26  15 2.26  12 2.27  23 2.27
  49  0.999  0.003  0.000-   8 2.27  11 2.27  14 2.28   1 2.29
  50  0.499  0.003  0.000-   7 2.27  12 2.27  13 2.28   2 2.29
  51  0.999  0.503  0.000-   6 2.27   9 2.27  16 2.28   3 2.29
  52  0.499  0.503  0.000-   5 2.27  10 2.27  15 2.28   4 2.29
  53  0.251  0.003  0.750-  23 2.27  11 2.27  13 2.28  17 2.29
  54  0.751  0.003  0.750-  24 2.27  12 2.27  14 2.28  18 2.29
  55  0.251  0.503  0.750-  21 2.27   9 2.27  15 2.28  19 2.29
  56  0.751  0.503  0.750-  22 2.27  10 2.27  16 2.28  20 2.29
  57  0.249  0.253  0.500-  17 2.27  25 2.27  29 2.28  21 2.29
  58  0.749  0.253  0.500-  18 2.27  26 2.27  30 2.28  22 2.29
  59  0.249  0.753  0.500-  19 2.27  27 2.27  31 2.28  23 2.29
  60  0.749  0.753  0.500-  20 2.27  28 2.27  32 2.28  24 2.29
  61  0.001  0.253  0.250-   1 2.27  26 2.27  29 2.28   6 2.29
  62  0.501  0.253  0.250-   2 2.27  25 2.27  30 2.28   5 2.29
  63  0.001  0.753  0.250-   3 2.27  28 2.27  31 2.28   8 2.29
  64  0.501  0.753  0.250-   4 2.27  27 2.27  32 2.28   7 2.29

  LATTYP: Found a simple monoclinic cell.
 ALAT       =    15.1799220309
 B/A-ratio  =     0.6929413637
 C/A-ratio  =     1.5687001298
 COS(beta)  =    -0.9531639993

  Lattice vectors:

 A1 = ( -11.0607919434,   0.0000000000, -10.3965818637)
 A2 = (   0.0000000000, -10.5187958726,   0.0000000000)
 A3 = (  11.6056537110,   0.0000000000,  20.7931637274)

Analysis of symmetry for initial positions (statically):
 Subroutine PRICEL returns following result:

[...]

   4 primitive cells build up your supercell.

 Routine SETGRP: Setting up the symmetry group for a
 simple monoclinic supercell.

 Subroutine GETGRP returns: Found  2 space group operations
 (whereof  1 operations were pure point group operations)
 out of a pool of  4 trial point group operations.

The static configuration has the point symmetry C_1 .
 The point group associated with its full space group is C_2 .

Analysis of symmetry for dynamics (positions and initial velocities):
 Subroutine PRICEL returns following result:

[...]

The dynamic configuration has the point symmetry C_1 .
 The point group associated with its full space group is C_2 .

Analysis of structural, dynamic, and magnetic symmetry:
 Subroutine PRICEL returns following result:

[...]

The magnetic configuration has the point symmetry C_1 .
 The point group associated with its full space group is C_2 .

 Subroutine INISYM returns: Found  2 space group operations
 (whereof  1 operations are pure point group operations),
 and found     4 'primitive' translations

 KPOINTS: Automatic mesh

Automatic generation of k-mesh.
Space group operators:
 irot       det(A)        alpha          n_x          n_y          n_z        tau_x        tau_y        tau_z
    1     1.000000     0.000000     1.000000     0.000000     0.000000     0.000000     0.000000     0.000000
    2     1.000000   179.999999     0.000000     1.000000     0.000000    -0.250000     0.000000    -0.250000

 Subroutine IBZKPT returns following result:

 Found     30 irreducible k-points:

 Following reciprocal coordinates:
            Coordinates               Weight
  0.000000  0.000000  0.000000      1.000000
  0.250000  0.000000  0.000000      2.000000
  0.500000  0.000000  0.000000      1.000000
  0.000000  0.250000  0.000000      2.000000
  0.250000  0.250000  0.000000      4.000000
  0.500000  0.250000  0.000000      2.000000
  0.000000  0.500000  0.000000      1.000000
  0.250000  0.500000  0.000000      2.000000
  0.500000  0.500000  0.000000      1.000000
  0.000000  0.000000  0.250000      2.000000
  0.250000  0.000000  0.250000      2.000000
  0.500000  0.000000  0.250000      2.000000
 -0.250000  0.000000  0.250000      2.000000
  0.000000  0.250000  0.250000      4.000000
  0.250000  0.250000  0.250000      4.000000
  0.500000  0.250000  0.250000      4.000000
 -0.250000  0.250000  0.250000      4.000000
  0.000000  0.500000  0.250000      2.000000
  0.250000  0.500000  0.250000      2.000000
  0.500000  0.500000  0.250000      2.000000
 -0.250000  0.500000  0.250000      2.000000
  0.000000  0.000000  0.500000      1.000000
  0.250000  0.000000  0.500000      2.000000
  0.500000  0.000000  0.500000      1.000000
  0.000000  0.250000  0.500000      2.000000
  0.250000  0.250000  0.500000      4.000000
  0.500000  0.250000  0.500000      2.000000
  0.000000  0.500000  0.500000      1.000000
  0.250000  0.500000  0.500000      2.000000
  0.500000  0.500000  0.500000      1.000000

 Following cartesian coordinates:
            Coordinates               Weight
  0.000000  0.000000  0.000000      1.000000
  0.023773  0.000000 -0.001246      2.000000
  0.047547  0.000000 -0.002492      1.000000
  0.000000  0.023767  0.000000      2.000000
  0.023773  0.023767 -0.001246      4.000000
  0.047547  0.023767 -0.002492      2.000000
  0.000000  0.047534  0.000000      1.000000
  0.023773  0.047534 -0.001246      2.000000
  0.047547  0.047534 -0.002492      1.000000
  0.000000  0.000000  0.024046      2.000000
  0.023773  0.000000  0.022800      2.000000
  0.047547  0.000000  0.021555      2.000000
 -0.023773  0.000000  0.025292      2.000000
  0.000000  0.023767  0.024046      4.000000
  0.023773  0.023767  0.022800      4.000000
  0.047547  0.023767  0.021555      4.000000
 -0.023773  0.023767  0.025292      4.000000
  0.000000  0.047534  0.024046      2.000000
  0.023773  0.047534  0.022800      2.000000
  0.047547  0.047534  0.021555      2.000000
 -0.023773  0.047534  0.025292      2.000000
  0.000000  0.000000  0.048093      1.000000
  0.023773  0.000000  0.046847      2.000000
  0.047547  0.000000  0.045601      1.000000
  0.000000  0.023767  0.048093      2.000000
  0.023773  0.023767  0.046847      4.000000
  0.047547  0.023767  0.045601      2.000000
  0.000000  0.047534  0.048093      1.000000
  0.023773  0.047534  0.046847      2.000000
  0.047547  0.047534  0.045601      1.000000

 TETIRR: Found    192 inequivalent tetrahedra from      384

 Subroutine IBZKPT_HF returns following result:

 Found     64 k-points in 1st BZ
 the following     64 k-points will be used (e.g. in the exchange kernel)
 Following reciprocal coordinates:   # in IRBZ
  0.000000  0.000000  0.000000    0.01562500   1 t-inv F
  0.250000  0.000000  0.000000    0.01562500   2 t-inv F
  0.500000  0.000000  0.000000    0.01562500   3 t-inv F
  0.000000  0.250000  0.000000    0.01562500   4 t-inv F
  0.250000  0.250000  0.000000    0.01562500   5 t-inv F
  0.500000  0.250000  0.000000    0.01562500   6 t-inv F
  0.000000  0.500000  0.000000    0.01562500   7 t-inv F
  0.250000  0.500000  0.000000    0.01562500   8 t-inv F
  0.500000  0.500000  0.000000    0.01562500   9 t-inv F
  0.000000  0.000000  0.250000    0.01562500  10 t-inv F
  0.250000  0.000000  0.250000    0.01562500  11 t-inv F
  0.500000  0.000000  0.250000    0.01562500  12 t-inv F
 -0.250000  0.000000  0.250000    0.01562500  13 t-inv F
  0.000000  0.250000  0.250000    0.01562500  14 t-inv F
  0.250000  0.250000  0.250000    0.01562500  15 t-inv F
  0.500000  0.250000  0.250000    0.01562500  16 t-inv F
[...]
      8.42122      2.65979     10.39651     2.99982 -0.22267  1.93600 (-10.86847 17.00000)
      3.16325      7.91919     10.39651     2.99982 -0.22267  1.93600 (-10.86847 17.00000)
      8.42122      7.91919     10.39651     2.99982 -0.22267  1.93600 (-10.86847 17.00000)
      0.41924      2.65979      7.79751    -0.25213 -0.46707  2.22681 (-10.86847 17.00000)
      5.67720      2.65979      7.79751    -0.25213 -0.46707  2.22681 (-10.86847 17.00000)
      0.41924      7.91919      7.79751    -0.25213 -0.46707  2.22681 (-10.86847 17.00000)
      5.67720      7.91919      7.79751    -0.25213 -0.46707  2.22681 (-10.86847 17.00000)
     10.51055      0.02861      0.00154     0.81403 -0.24357  4.08203 ( -8.40072 14.00000)
      5.25259      0.02861      0.00154     0.81403 -0.24357  4.08203 ( -8.40072 14.00000)
     10.51055      5.28801      0.00154     0.81403 -0.24357  4.08203 ( -8.40072 14.00000)
      5.25259      5.28801      0.00154     0.81403 -0.24357  4.08203 ( -8.40072 14.00000)
      3.04301      0.02861      7.79590     2.74761 -0.76784  4.32869 ( -8.40072 14.00000)
      8.30097      0.02861      7.79590     2.74761 -0.76784  4.32869 ( -8.40072 14.00000)
      3.04301      5.28801      7.79590     2.74761 -0.76784  4.32869 ( -8.40072 14.00000)
      8.30097      5.28801      7.79590     2.74761 -0.76784  4.32869 ( -8.40072 14.00000)
      2.89603      2.65831      5.19983     2.32469 -0.33152  3.73837 ( -8.40071 14.00000)
      8.15400      2.65831      5.19983     2.32469 -0.33152  3.73837 ( -8.40071 14.00000)
      2.89603      7.91771      5.19983     2.32469 -0.33152  3.73837 ( -8.40071 14.00000)
      8.15400      7.91771      5.19983     2.32469 -0.33152  3.73837 ( -8.40071 14.00000)
      0.14159      2.65831      2.59761    -0.34335 -0.44002  4.21800 ( -8.40071 14.00000)
      5.39956      2.65831      2.59761    -0.34335 -0.44002  4.21800 ( -8.40071 14.00000)
      0.14159      7.91771      2.59761    -0.34335 -0.44002  4.21800 ( -8.40071 14.00000)
      5.39956      7.91771      2.59761    -0.34335 -0.44002  4.21800 ( -8.40071 14.00000)
    total drift (improves with k-points): -27.35054 -9.69539 91.96272

[...]

 MACROSCOPIC STATIC DIELECTRIC TENSOR (including local field effects in DFT)
       37287.581090     0.000000 -2201.909818
           0.000000*************     0.000000
       -2202.151775     0.000000 43759.762795

[...]

Analysis of symmetry for initial positions (statically):
 Subroutine PRICEL returns following result:

[...]

The static configuration has the point symmetry C_1 .
 The point group associated with its full space group is C_2 .

Analysis of symmetry for dynamics (positions and initial velocities):
 Subroutine PRICEL returns following result:

[...]

The dynamic configuration has the point symmetry C_1 .
 The point group associated with its full space group is C_2 .

Analysis of structural, dynamic, and magnetic symmetry:
 Subroutine PRICEL returns following result:

  LATTYP: Found a simple monoclinic cell.
 ALAT       =    11.9063728299
 B/A-ratio  =     0.4417296528
 C/A-ratio  =     1.8259538891
 COS(beta)  =    -0.9774464822

  Lattice vectors:

 A1 = (  -5.8028268555,   0.0000000000, -10.3965818637)
 A2 = (   0.0000000000,  -5.2593979363,   0.0000000000)
 A3 = (   6.3476886231,   0.0000000000,  20.7931637274)

   4 primitive cells build up your supercell.

 Routine SETGRP: Setting up the symmetry group for a
 simple monoclinic supercell.

 Subroutine GETGRP returns: Found  2 space group operations
 (whereof  1 operations were pure point group operations)
 out of a pool of  4 trial point group operations.

The magnetic configuration has the point symmetry C_1 .
 The point group associated with its full space group is C_2 .

 Subroutine INISYM returns: Found  2 space group operations
 (whereof  1 operations are pure point group operations),
 and found     4 'primitive' translations

 MACROSCOPIC STATIC DIELECTRIC TENSOR (including local field effects in DFT)
       37287.581090     0.000000 -2201.909818
           0.000000*************     0.000000
       -2202.151775     0.000000 43759.762795

 PIEZOELECTRIC TENSOR (including local field effects)  for field in x, y, z        (e  Angst)
          XX          YY          ZZ          XY          YZ          ZX
  x   -17.28783    13.86643    20.77942    -1.02717   -40.49472    12.18311
  y   -19.87953  -395.72687   296.01161     0.00000     0.00000     2.44000
  z     1.72337    -8.26871    11.44580   -35.58719   -16.99553   -14.06104

 PIEZOELECTRIC TENSOR (including local field effects)  for field in x, y, z        (C/m^2)
          XX          YY          ZZ          XY          YZ          ZX
  x     0.00000     0.00000     0.00000    -0.01431    -0.56416     0.00000
  y    -0.27696    -5.51318     4.12397     0.00000     0.00000     0.03399
  z     0.00000     0.00000     0.00000    -0.49579    -0.23678     0.00000

 BORN EFFECTIVE CHARGES (including local field effects) (in e, cummulative output)
 ion    1
    1     0.92225    -0.27222    -0.50674
    2    -8.31803    -5.19097    -6.70136
    3    -1.82221    -2.29499    -4.30796
 ion    2
    1     0.92225    -0.27222    -0.50674
    2    -8.31803    -5.19097    -6.70136
    3    -1.82221    -2.29499    -4.30796
 ion    3
    1     0.92225    -0.27222    -0.50674
    2    -8.31803    -5.19097    -6.70136
    3    -1.82221    -2.29499    -4.30796
 ion    4
    1     0.92225    -0.27222    -0.50674
    2    -8.31803    -5.19097    -6.70136
    3    -1.82221    -2.29499    -4.30796
 ion    5
    1    -3.60998    -1.07963     1.22390
    2    -0.80131   -10.11924     0.19000
    3    -3.05109     2.10131    -3.78899
 ion    6
    1    -3.60998    -1.07963     1.22390
    2    -0.80131   -10.11924     0.19000
    3    -3.05109     2.10131    -3.78899
 ion    7
    1    -3.60998    -1.07963     1.22390
    2    -0.80131   -10.11924     0.19000
    3    -3.05109     2.10131    -3.78899
 ion    8
    1    -3.60998    -1.07963     1.22390
    2    -0.80131   -10.11924     0.19000
    3    -3.05109     2.10131    -3.78899
 ion    9
    1    -2.69216    -0.38905     1.48932
    2     0.00000     0.21083     0.00000
    3    -0.36795     0.03651     0.47983
 ion   10
    1    -2.69216    -0.38905     1.48932
    2     0.00000     0.21083     0.00000
    3    -0.36795     0.03651     0.47983
 ion   11
    1    -2.69216    -0.38905     1.48932
    2     0.00000     0.21083     0.00000
    3    -0.36795     0.03651     0.47983
 ion   12
    1    -2.69216    -0.38905     1.48932
    2     0.00000     0.21083    -0.00000
    3    -0.36795     0.03651     0.47983
 ion   13
    1    -1.26787     0.10988    -2.86545
    2     0.00000     1.69522    -0.00000
    3    -2.55966    -0.04409    -0.20378
 ion   14
    1    -1.26787     0.10988    -2.86545
    2     0.00000     1.69522     0.00000
    3    -2.55966    -0.04409    -0.20378
 ion   15
    1    -1.26787     0.10988    -2.86545
    2     0.00000     1.69522    -0.00000
    3    -2.55966    -0.04409    -0.20378
 ion   16
    1    -1.26787     0.10988    -2.86545
    2     0.00000     1.69522     0.00000
    3    -2.55966    -0.04409    -0.20378
 ion   17
    1    -0.96445     0.30481    -1.65065
    2     8.31803    -5.19097     6.70136
    3    -1.54130     1.19036    -4.18149
 ion   18
    1    -0.96445     0.30481    -1.65065
    2     8.31803    -5.19097     6.70136
    3    -1.54130     1.19036    -4.18149
 ion   19
    1    -0.96445     0.30481    -1.65065
    2     8.31803    -5.19097     6.70136
    3    -1.54130     1.19036    -4.18149
 ion   20
    1    -0.96445     0.30481    -1.65065
    2     8.31803    -5.19097     6.70136
    3    -1.54130     1.19036    -4.18149
 ion   21
    1    -3.53492    -0.01795     1.25492
    2     0.80131   -10.11924    -0.19000
    3    -0.92418     1.03129    -3.96664
 ion   22
    1    -3.53492    -0.01795     1.25492
    2     0.80131   -10.11924    -0.19000
    3    -0.92418     1.03129    -3.96664
 ion   23
    1    -3.53492    -0.01795     1.25492
    2     0.80131   -10.11924    -0.19000
    3    -0.92418     1.03129    -3.96664
 ion   24
    1    -3.53492    -0.01795     1.25492
    2     0.80131   -10.11924    -0.19000
    3    -0.92418     1.03129    -3.96664
 ion   25
    1    -0.26675     0.65601     0.13770
    2     0.00000     9.15612    -0.00000
    3    -0.21120     0.03191    -0.13918
 ion   26
    1    -0.26675     0.65601     0.13770
    2     0.00000     9.15612     0.00000
    3    -0.21120     0.03191    -0.13918
 ion   27
    1    -0.26675     0.65601     0.13770
    2     0.00000     9.15612     0.00000
    3    -0.21120     0.03191    -0.13918
 ion   28
    1    -0.26675     0.65601     0.13770
    2     0.00000     9.15612    -0.00000
    3    -0.21120     0.03191    -0.13918
 ion   29
    1    -1.52671     0.74030    -0.11648
    2     0.00000   -16.41251    -0.00000
    3    -2.95660    -1.10097     1.19326
 ion   30
    1    -1.52671     0.74030    -0.11648
    2     0.00000   -16.41251     0.00000
    3    -2.95660    -1.10097     1.19326
 ion   31
    1    -1.52671     0.74030    -0.11648
    2     0.00000   -16.41251     0.00000
    3    -2.95660    -1.10097     1.19326
 ion   32
    1    -1.52671     0.74030    -0.11648
    2     0.00000   -16.41251     0.00000
    3    -2.95660    -1.10097     1.19326
 ion   33
    1     1.25979    -0.11816    -0.02291
    2    -2.18414     0.98657    -4.71334
    3    -0.05752     0.40560     1.92171
 ion   34
    1     1.25979    -0.11816    -0.02291
    2    -2.18414     0.98657    -4.71334
    3    -0.05752     0.40560     1.92171
 ion   35
    1     1.25979    -0.11816    -0.02291
    2    -2.18414     0.98657    -4.71334
    3    -0.05752     0.40560     1.92171
 ion   36
    1     1.25979    -0.11816    -0.02291
    2    -2.18414     0.98657    -4.71334
    3    -0.05752     0.40560     1.92171
 ion   37
    1     0.59228     0.04578    -0.14137
    2     2.18414     0.98657     4.71334
    3     2.63691     0.20680     1.08484
 ion   38
    1     0.59228     0.04578    -0.14137
    2     2.18414     0.98657     4.71334
    3     2.63691     0.20680     1.08484
 ion   39
    1     0.59228     0.04578    -0.14137
    2     2.18414     0.98657     4.71334
    3     2.63691     0.20680     1.08484
 ion   40
    1     0.59228     0.04578    -0.14137
    2     2.18414     0.98657     4.71334
    3     2.63691     0.20680     1.08484
 ion   41
    1     0.81466    -0.13279     0.11211
    2    -3.47109    -5.22194     0.54917
    3     3.42718    -0.07118     0.49908
 ion   42
    1     0.81466    -0.13279     0.11211
    2    -3.47109    -5.22194     0.54917
    3     3.42718    -0.07118     0.49908
 ion   43
    1     0.81466    -0.13279     0.11211
    2    -3.47109    -5.22194     0.54917
    3     3.42718    -0.07118     0.49908
 ion   44
    1     0.81466    -0.13279     0.11211
    2    -3.47109    -5.22194     0.54917
    3     3.42718    -0.07118     0.49908
 ion   45
    1     0.97166     0.05565     0.00072
    2     3.47109    -5.22194    -0.54917
    3     0.17523    -0.31558     0.78989
 ion   46
    1     0.97166     0.05565     0.00072
    2     3.47109    -5.22194    -0.54917
    3     0.17523    -0.31558     0.78989
 ion   47
    1     0.97166     0.05565     0.00072
    2     3.47109    -5.22194    -0.54917
    3     0.17523    -0.31558     0.78989
 ion   48
    1     0.97166     0.05565     0.00072
    2     3.47109    -5.22194    -0.54917
    3     0.17523    -0.31558     0.78989
 ion   49
    1     2.00388    -0.05149    -0.37504
    2    -8.21801    12.74167   -11.41613
    3     1.24138    -0.09207     2.64512
 ion   50
    1     2.00388    -0.05149    -0.37504
    2    -8.21801    12.74167   -11.41613
    3     1.24138    -0.09207     2.64512
 ion   51
    1     2.00388    -0.05149    -0.37504
    2    -8.21801    12.74167   -11.41613
    3     1.24138    -0.09207     2.64512
 ion   52
    1     2.00388    -0.05149    -0.37504
    2    -8.21801    12.74167   -11.41613
    3     1.24138    -0.09207     2.64512
 ion   53
    1     2.89747     0.07349     0.21476
    2     8.21801    12.74167    11.41613
    3     3.17497    -0.61635     2.89178
 ion   54
    1     2.89747     0.07349     0.21476
    2     8.21801    12.74167    11.41613
    3     3.17497    -0.61635     2.89178
 ion   55
    1     2.89747     0.07349     0.21476
    2     8.21801    12.74167    11.41613
    3     3.17497    -0.61635     2.89178
 ion   56
    1     2.89747     0.07349     0.21476
    2     8.21801    12.74167    11.41613
    3     3.17497    -0.61635     2.89178
 ion   57
    1     2.38147    -0.43247     0.52408
    2     0.73590     9.47909    -5.94962
    3     2.75204    -0.18003     2.30145
 ion   58
    1     2.38147    -0.43247     0.52408
    2     0.73590     9.47909    -5.94962
    3     2.75204    -0.18003     2.30145
 ion   59
    1     2.38147    -0.43247     0.52408
    2     0.73590     9.47909    -5.94962
    3     2.75204    -0.18003     2.30145
 ion   60
    1     2.38147    -0.43247     0.52408
    2     0.73590     9.47909    -5.94962
    3     2.75204    -0.18003     2.30145
 ion   61
    1     2.01938     0.50786     0.72113
    2    -0.73590     9.47909     5.94962
    3     0.08400    -0.28853     2.78108
 ion   62
    1     2.01938     0.50786     0.72113
    2    -0.73590     9.47909     5.94962
    3     0.08400    -0.28853     2.78108
 ion   63
    1     2.01938     0.50786     0.72113
    2    -0.73590     9.47909     5.94962
    3     0.08400    -0.28853     2.78108
 ion   64
    1     2.01938     0.50786     0.72113
    2    -0.73590     9.47909     5.94962
    3     0.08400    -0.28853     2.78108

 writing wavefunctions

 total charge

[...]

 magnetization (x)

# of ion       s       p       d       tot
    1       -0.000  -0.013   0.000  -0.013
    2       -0.000  -0.013   0.000  -0.013
    3       -0.000  -0.013   0.000  -0.013
    4       -0.000  -0.013   0.000  -0.013
    5        0.000   0.012   0.000   0.012
    6        0.000   0.012   0.000   0.012
    7        0.000   0.012   0.000   0.012
    8        0.000   0.012   0.000   0.012
    9       -0.000   0.000   0.000   0.000
   10       -0.000   0.000   0.000   0.000
   11       -0.000   0.000   0.000   0.000
   12       -0.000   0.000   0.000   0.000
   13       -0.000   0.000   0.000   0.000
   14       -0.000   0.000   0.000   0.000
   15       -0.000   0.000   0.000   0.000
   16       -0.000   0.000   0.000   0.000
   17        0.000   0.012   0.000   0.012
   18        0.000   0.012   0.000   0.012
   19        0.000   0.012   0.000   0.012
   20        0.000   0.012   0.000   0.012
   21       -0.000  -0.013   0.000  -0.013
   22       -0.000  -0.013   0.000  -0.013
   23       -0.000  -0.013   0.000  -0.013
   24       -0.000  -0.013   0.000  -0.013
   25       -0.000   0.000   0.000   0.000
   26       -0.000   0.000   0.000   0.000
   27       -0.000   0.000   0.000   0.000
   28       -0.000   0.000   0.000   0.000
   29       -0.000   0.000   0.000   0.000
   30       -0.000   0.000   0.000   0.000
   31       -0.000   0.000   0.000   0.000
   32       -0.000   0.000   0.000   0.000
   33        0.000   0.001  -0.001  -0.000
   34        0.000   0.001  -0.001  -0.000
   35        0.000   0.001  -0.001  -0.000
   36        0.000   0.001  -0.001  -0.000
   37       -0.000  -0.001   0.002   0.001
   38       -0.000  -0.001   0.002   0.001
   39       -0.000  -0.001   0.002   0.001
   40       -0.000  -0.001   0.002   0.001
   41        0.000   0.001  -0.001  -0.000
   42        0.000   0.001  -0.001  -0.000
   43        0.000   0.001  -0.001  -0.000
   44        0.000   0.001  -0.001  -0.000
   45       -0.000  -0.001   0.002   0.001
   46       -0.000  -0.001   0.002   0.001
   47       -0.000  -0.001   0.002   0.001
   48       -0.000  -0.001   0.002   0.001
   49        0.020   0.054   3.670   3.743
   50        0.020   0.054   3.670   3.743
   51        0.020   0.054   3.670   3.743
   52        0.020   0.054   3.670   3.743
   53       -0.020  -0.054  -3.670  -3.743
   54       -0.020  -0.054  -3.670  -3.743
   55       -0.020  -0.054  -3.670  -3.743
   56       -0.020  -0.054  -3.670  -3.743
   57        0.020   0.054   3.670   3.743
   58        0.020   0.054   3.670   3.743
   59        0.020   0.054   3.670   3.743
   60        0.020   0.054   3.670   3.743
   61       -0.020  -0.054  -3.670  -3.743
   62       -0.020  -0.054  -3.670  -3.743
   63       -0.020  -0.054  -3.670  -3.743
   64       -0.020  -0.054  -3.670  -3.743
tot         -0.000   0.001  -0.000   0.000

 BZINTS: Fermi energy:  4.937207;688.000000 electrons
         Band energy:***********;  BLOECHL correction:  0.000000